! TOUCHSTONE file generated by CST MICROWAVE STUDIO
! Date and time: Thu Sep  3 12:05:54 2026
! Project name: patch_antenna.cst
! Parameters = {InL=5.33; InW=0.26; ML=6.125; MW=2.6; Mt=0.035; PL=12.75; PW=20; SH=1.2; SL=25; SW=30; k=5.09}
! Header version: 2024
! Port assignment regex: !\s*Touchstone port\s*([0-9]+)\s*=\s*(CST MWS port|CST DES external port|CST DES block port)\s*(.+)\s* \(\"(.*)\"\)(\s*mode\s*([0-9]+))?.*
! Touchstone port assignment:
! Touchstone port 1 = CST MWS port 1 ("")
! Touchstone port 2 = CST MWS port 2 ("")
! Touchstone port 3 = CST MWS port 3 ("")
! Touchstone port 4 = CST MWS port 4 ("")
# GHz S RI R 50
5                      0.7051861      -0.6170008      -0.01960905     0.008144252     0.0006832229    -0.002210162      0.001276875     0.001601747
                     -0.01428077    0.0005219507        0.7066793      -0.6313695      -0.01948176     0.009148157      -0.00217329    -0.001683416
                    -0.003956628     0.002645507      -0.01947659     0.009151224        0.7066755      -0.6314011      -0.01594529     0.006780728
                     0.002548212   -0.0009834948     0.0006532511    -0.002242843      -0.01945443     0.008208932        0.7048154      -0.6246198
5.0016                 0.7038603      -0.6182122      -0.01946065      0.00803704     0.0005186807    -0.002095357      0.001358843     0.001482746
                     -0.01450532    0.0002911628        0.7048962      -0.6325645      -0.01930349     0.009007927     -0.002280784    -0.001471412
                    -0.003864896     0.002889059      -0.01929833     0.009010977        0.7048907      -0.6325957      -0.01589025     0.006559459
                     0.002508785    -0.001129905     0.0004882764    -0.002126813      -0.01930476     0.008097623        0.7032263      -0.6258001
5.0032                 0.7025378      -0.6194317      -0.01932227      0.00792268     0.0003608272    -0.001973611      0.001434839     0.001360951
                     -0.01474123    7.009034e-05        0.7031212      -0.6337489       -0.0191371     0.008859622     -0.002378148    -0.001255924
                    -0.003763732       0.0031275      -0.01913195     0.008862664        0.7031144      -0.6337799      -0.01584899     0.006336198
                     0.002463468     -0.00127379     0.0003300488    -0.002003836       -0.0191653     0.007979157        0.7016438      -0.6269779
5.0048                 0.7012177      -0.6206595      -0.01919417     0.007801679     0.0002099108    -0.001845267      0.001504793     0.001236637
                     -0.01498804   -0.0001408714        0.7013549      -0.6349238      -0.01898287     0.008703842     -0.002465315    -0.001037406
                    -0.003653415     0.003360491      -0.01897772     0.008706865        0.7013466      -0.6349542      -0.01582151     0.006111555
                     0.002412411    -0.001414929     0.0001788157     -0.00187426       -0.0190363     0.007854047        0.7000682      -0.6281536
5.0064                 0.6998998      -0.6218958      -0.01907657     0.007674538     6.616131e-05    -0.001710678      0.001568649      0.00111008
                     -0.01524526   -0.0003413561        0.6995972      -0.6360894      -0.01884104     0.008541176     -0.002542239   -0.0008163099
                    -0.003534244     0.003587707       -0.0188359     0.008544181        0.6995878      -0.6361193      -0.01580776     0.005886122
                      0.00235577    -0.001553114     3.480687e-05    -0.001738438      -0.01891798     0.007722799        0.6984994       -0.629328
5.008                  0.6985832      -0.6231409      -0.01896967     0.007541763    -7.020649e-05    -0.001570201       0.00162636    0.0009815568
                      -0.0155124   -0.0005310292        0.6978483      -0.6372467      -0.01871182     0.008372225     -0.002608893   -0.0005930874
                    -0.003406515      0.00380884      -0.01870668     0.008375219        0.6978377      -0.6372759      -0.01580769     0.005660505
                     0.002293708    -0.001688141     -0.000101763    -0.001596733      -0.01881052     0.007585942        0.6969371      -0.6305013
5.0096                 0.6972679      -0.6243951      -0.01887365     0.007403885    -0.0001989949    -0.001424204      0.001677892    0.0008513418
                     -0.01578898   -0.0007095645        0.6961086      -0.6383961       -0.0185954     0.008197598     -0.002665268   -0.0003681856
                    -0.003270544     0.004023596      -0.01859028     0.008200578        0.6960966      -0.6384247      -0.01582122     0.005435279
                     0.002226393    -0.001819818    -0.0002306994     -0.00144951      -0.01871413     0.007443991        0.6953813      -0.6316741
5.0112                  0.695953      -0.6256582      -0.01878867     0.007261408    -0.0003200258    -0.001273054      0.001723223    0.0007197101
                     -0.01607448   -0.0008766595         0.694378      -0.6395383      -0.01849195       0.0080179     -0.002711375   -0.0001420508
                    -0.003126651     0.004231694      -0.01848684     0.008020867        0.6943647      -0.6395662      -0.01584824     0.005211025
                     0.002154002    -0.001947957    -0.0003518211    -0.001297144      -0.01862893      0.00729748        0.6938317      -0.6328468
5.0128                  0.694638      -0.6269307      -0.01871485     0.007114863    -0.0004331355    -0.001117127      0.001762344     0.000586935
                     -0.01636838    -0.001032054        0.6926566       -0.640674       -0.0184016     0.007833747     -0.002747243    8.487746e-05
                    -0.002975164     0.004432871       -0.0183965     0.007836702        0.6926421      -0.6407013      -0.01588863     0.004988311
                     0.002076718    -0.002072382    -0.0004649676    -0.001140011      -0.01855507     0.007146937        0.6922879        -0.63402
5.0144                 0.6933224      -0.6282123       -0.0186523     0.006964771    -0.0005381791   -0.0009568022      0.001795254    0.0004532879
                     -0.01667017    -0.001175477        0.6909443      -0.6418039      -0.01832447     0.007645745     -0.002772919    0.0003121631
                    -0.002816424     0.004626875      -0.01831936      0.00764869        0.6909286      -0.6418303      -0.01594222     0.004767698
                     0.001994728    -0.002192924    -0.0005699944   -0.0009784919      -0.01849265     0.006992882        0.6907499      -0.6351939
5.016                  0.6920056      -0.6295034      -0.01860111     0.006811664    -0.0006350283   -0.0007924605      0.001821967    0.0003190376
                     -0.01697932    -0.001306713        0.6892413      -0.6429285      -0.01826062     0.007454508     -0.002788468    0.0005393776
                    -0.002650776     0.004813476      -0.01825552      0.00745744        0.6892244      -0.6429543      -0.01600884     0.004549736
                     0.001908224    -0.002309423    -0.0006667736   -0.0008129709      -0.01844174     0.006835862        0.6892173      -0.6363693
5.0176                 0.6906871      -0.6308041      -0.01856134     0.006656048    -0.0007235725   -0.0006244864      0.001842505    0.0001844508
                      -0.0172953    -0.001425553        0.6875474      -0.6440487      -0.01821012     0.007260642     -0.002793971    0.0007660956
                     -0.00247857     0.004992454      -0.01820502     0.007263566        0.6875296      -0.6440734      -0.01608831     0.004334955
                     0.001817405    -0.002421729    -0.0007551966    -0.000643834      -0.01840241     0.006676403        0.6876898      -0.6375462
5.0192                 0.6893664      -0.6321141      -0.01853302     0.006498459    -0.0008037183    -0.000453265      0.001856904    4.979054e-05
                     -0.01761757    -0.001531811        0.6858625      -0.6451648      -0.01817299      0.00706476     -0.002789529    0.0009919016
                    -0.002300166     0.005163607       -0.0181679     0.007067675        0.6858438      -0.6451886       -0.0161804     0.004123881
                     0.001722472    -0.002529701    -0.0008351702   -0.0004714689      -0.01837469     0.006515028        0.6861672      -0.6387253
5.0208                  0.688043      -0.6334337      -0.01851618     0.006339412    -0.0008753896    -0.000279183      0.001865207   -8.468361e-05
                      -0.0179456    -0.001625323        0.6841869      -0.6462777      -0.01814923     0.006867459     -0.002775256     0.001216385
                    -0.002115923     0.005326749      -0.01814414     0.006870367        0.6841668      -0.6463006      -0.01628487      0.00391703
                     0.001623632    -0.002633204      -0.00090662   -0.0002962638       -0.0183586     0.006352264        0.6846495      -0.6399068
5.0224                 0.6867163      -0.6347628      -0.01851081     0.006179424    -0.0009385267   -0.0001026261      0.001867471   -0.0002187161
                     -0.01827884    -0.001705953        0.6825199      -0.6473879      -0.01813882     0.006669349     -0.002751284     0.001439145
                    -0.001926211     0.005481711      -0.01813374     0.006672244        0.6824992      -0.6474097      -0.01640148     0.003714892
                     0.001521094    -0.002732118    -0.0009694874   -0.0001186075      -0.01835412     0.006188628        0.6831358      -0.6410912
5.024                  0.6853859      -0.6361014      -0.01851688     0.006019005    -0.0009930877    7.601889e-05      0.001863761   -0.0003520558
                     -0.01861676    -0.001773588        0.6808619      -0.6484959      -0.01814172     0.006471005     -0.002717762      0.00165979
                      -0.0017314     0.005628338      -0.01813664     0.006473896        0.6808401      -0.6485168      -0.01652994     0.003517943
                     0.001415073    -0.002826328     -0.001023732    6.111247e-05      -0.01836122     0.006024649        0.6816261      -0.6422788
5.0256                  0.684051      -0.6374494      -0.01853435     0.005858661     -0.001039047    0.0002563686      0.001854153   -0.0004844563
                     -0.01895881    -0.001828135        0.6792123      -0.6496025      -0.01815785     0.006273031     -0.002674849     0.001877938
                    -0.001531865     0.005766491      -0.01815277     0.006275906        0.6791899      -0.6496223      -0.01666997     0.003326662
                     0.001305782    -0.002915729      -0.00106933    0.0002425097      -0.01837986     0.005860827        0.6801201      -0.6434699
5.0272                 0.6827114      -0.6388067      -0.01856314     0.005698885     -0.001076395      0.00043804      0.001838731   -0.0006156763
                     -0.01930445    -0.001869514        0.6775713      -0.6507083       -0.0181871      0.00607599     -0.002622724     0.002093215
                    -0.001327982     0.005896051      -0.01818202     0.006078864         0.677548      -0.6507269      -0.01682126     0.003141497
                      0.00119344    -0.003000227     -0.001106272    0.0004252004      -0.01840994     0.005697673        0.6786173      -0.6446648
5.0288                 0.6813663      -0.6401734      -0.01860315     0.005540188     -0.001105139    0.0006206537      0.001817589   -0.0007454805
                     -0.01965314    -0.001897688        0.6759385      -0.6518136      -0.01822937     0.005880462     -0.002561578     0.002305258
                    -0.001120128     0.006016911      -0.01822429     0.005883325        0.6759144      -0.6518311      -0.01698348     0.002962875
                     0.001078269    -0.003079736     -0.001134569    0.0006088031      -0.01845139     0.005535683        0.6771174      -0.6458638
5.0304                 0.6800153      -0.6415492      -0.01865429     0.005383037     -0.001125303    0.0008038331      0.001790832   -0.0008736385
                     -0.02000434    -0.001912625        0.6743137      -0.6529191      -0.01828449     0.005686998     -0.002491614     0.002513717
                   -0.0009086876     0.006128979      -0.01827941     0.005689857        0.6742888      -0.6529357      -0.01715629     0.002791213
                    0.0009604906    -0.003154181     -0.001154245    0.0007929397      -0.01850407     0.005375342          0.67562      -0.6470672
5.032                  0.6786581      -0.6429341      -0.01871642     0.005227919     -0.001136926    0.0009872066      0.001758572   -0.0009999268
                     -0.02035753    -0.001914321        0.6726965      -0.6540254      -0.01835232     0.005496156     -0.002413052      0.00271825
                    -0.000694035     0.006232185      -0.01834724     0.005499009         0.672671      -0.6540408      -0.01733935     0.002626923
                    0.0008403264    -0.003223495     -0.001165342    0.0009772361      -0.01856786     0.005217146        0.6741249      -0.6482755
5.0336                 0.6772938      -0.6443278       -0.0187894     0.005075303     -0.001140063     0.001170406      0.001720929    -0.001124128
                     -0.02071218    -0.001902792        0.6710867      -0.6551329      -0.01843265     0.005308468     -0.002326122     0.002918528
                   -0.0004765548     0.006326468      -0.01842757     0.005311311        0.6710607      -0.6551472      -0.01753226     0.002470373
                    0.0007180029    -0.003287621     -0.001167915     0.001161324      -0.01864261     0.005061554        0.6726314      -0.6494884
5.0352                 0.6759223      -0.6457303      -0.01887304     0.004925633     -0.001134783     0.001353069      0.001678032    -0.001246033
                     -0.02106775    -0.001878072        0.6694841      -0.6562424      -0.01852527     0.005124458     -0.002231063     0.003114238
                   -0.0002566258     0.006411787      -0.01852019     0.005127299        0.6694577      -0.6562555      -0.01773467     0.002321936
                     0.000593744    -0.003346512     -0.001162036     0.001344839      -0.01872813     0.004909028         0.671139      -0.6507068
5.0368                  0.674543      -0.6471413      -0.01896717     0.004779376     -0.001121172     0.001534839      0.001630017    -0.001365436
                     -0.02142373    -0.001840223        0.6678881      -0.6573542      -0.01862996     0.004944641     -0.002128129     0.003305075
                   -3.462618e-05     0.006488116      -0.01862487     0.004947478        0.6678612      -0.6573662      -0.01794618     0.002181951
                    0.0004677725    -0.003400129     -0.001147792     0.001527424      -0.01882423     0.004760024        0.6696479      -0.6519304
5.0384                 0.6731554      -0.6485607      -0.01907159     0.004636948     -0.001099327     0.001715366      0.001577028    -0.001482142
                     -0.02177962    -0.001789319        0.6662989      -0.6584688      -0.01874647      0.00476952     -0.002017583     0.003490748
                    0.0001890707      0.00655544      -0.01874137     0.004772348        0.6662714      -0.6584794      -0.01816638      0.00205075
                    0.0003403153    -0.003448443     -0.001125284     0.001708727      -0.01893071     0.004614974        0.6681571      -0.6531596
5.04                    0.671759      -0.6499882      -0.01918606     0.004498787     -0.001069364     0.001894308      0.001519217    -0.001595964
                     -0.02213489    -0.001725464        0.6647155      -0.6595864      -0.01887451     0.004599571       -0.0018997      0.00367098
                    0.0004140885     0.006613769      -0.01886942     0.004602392        0.6646879      -0.6595959      -0.01839485     0.001928628
                    0.0002115977    -0.003491435     -0.001094628     0.001888405      -0.01904733     0.004474318        0.6666665      -0.6543945
5.0416                 0.6703535      -0.6514236      -0.01931036     0.004365298     -0.001031409     0.002071329      0.001456738    -0.001706719
                     -0.02248907     -0.00164877        0.6631379      -0.6607078      -0.01901382     0.004435268     -0.001774763     0.003845506
                     0.000640056     0.006663115      -0.01900872     0.004438079          0.66311      -0.6607162      -0.01863118     0.001815882
                    8.183988e-05    -0.003529095     -0.001055951      0.00206612      -0.01917386     0.004338449        0.6651754      -0.6556353
5.0432                 0.6689383      -0.6528667      -0.01944423     0.004236872    -0.0009856012     0.002246102      0.001389759    -0.001814235
                     -0.02284166    -0.001559368        0.6615657      -0.6618334      -0.01916407     0.004277054     -0.001643061     0.004014079
                    0.0008666061     0.006703516      -0.01915896     0.004279866        0.6615373      -0.6618404      -0.01887493     0.001712772
                   -4.873267e-05    -0.003561419     -0.001009396     0.002241546      -0.01931004     0.004207786        0.6636836       -0.656882
5.0448                 0.6675132      -0.6543171      -0.01958741     0.004113902    -0.0009320943     0.002418306      0.001318446    -0.001918347
                     -0.02319218    -0.001457421        0.6599982      -0.6629633      -0.01932494      0.00412538     -0.001504895     0.004176462
                     0.001093378     0.006735018      -0.01931983     0.004128185        0.6599699      -0.6629692      -0.01912566     0.001619551
                    -0.000179905    -0.003588416    -0.0009551199     0.002414361      -0.01945559       0.0040827        0.6621907      -0.6581349
5.0464                 0.6660777      -0.6557747      -0.01973961     0.003996756    -0.0008710542     0.002587635      0.001242976      -0.0020189
                     -0.02354017      -0.0013431        0.6584353      -0.6640983      -0.01949611     0.003980656     -0.001360572     0.004332435
                     0.001320012     0.006757685      -0.01949098     0.003983454        0.6584069      -0.6641029      -0.01938292     0.001536441
                   -0.0003114544    -0.003610102    -0.0008932887     0.002584256      -0.01961023     0.003963573        0.6606959      -0.6593941
5.048                  0.6646313       -0.657239      -0.01990055     0.003885786    -0.0008026583     0.002753785      0.001163528    -0.002115745
                     -0.02388516    -0.001216589        0.6568766      -0.6652384       -0.0196772     0.003843283     -0.001210406     0.004481789
                     0.001546157     0.006771589      -0.01967207     0.003846075         0.656848      -0.6652418      -0.01964627     0.001463652
                   -0.0004431678    -0.003626502    -0.0008240808      0.00275093      -0.01977365     0.003850758        0.6591993      -0.6606596
5.0496                 0.6631737      -0.6587098       -0.0200699     0.003781332    -0.0007270935     0.002916468      0.001080288    -0.002208744
                      -0.0242267    -0.001078094        0.6553212      -0.6663841      -0.01986786     0.003713649     -0.001054715     0.004624335
                     0.001771463     0.006776824      -0.01986272     0.003716433        0.6552926      -0.6663863      -0.01991524     0.001401366
                   -0.0005748318    -0.003637647    -0.0007476881     0.002914091      -0.01994555     0.003744596        0.6577001      -0.6619314
5.0512                 0.6617046      -0.6601868      -0.02024736     0.003683721    -0.0006445611     0.003075404     0.0009934444    -0.002297766
                     -0.02456438   -0.0009278439         0.653769      -0.6675357       -0.0200677     0.003592116    -0.0008938271     0.004759893
                     0.001995592      0.00677349      -0.02006255     0.003594893        0.6537404      -0.6675366      -0.02018937     0.001349746
                   -0.0007062328     -0.00364358    -0.0006643118     0.003073459      -0.02012559     0.003645408        0.6561976      -0.6632096
5.0528                 0.6602237      -0.6616697      -0.02043258     0.003593256    -0.0005552705     0.003230322     0.0009031906    -0.002382689
                     -0.02489776   -0.0007660727        0.6522195      -0.6686934      -0.02027632     0.003479036    -0.0007280709     0.004888303
                     0.002218209     0.006761704      -0.02027117     0.003481804        0.6521909      -0.6686932      -0.02046821     0.001308948
                   -0.0008371646    -0.003644352    -0.0005741647     0.003228765      -0.02031343     0.003553505         0.654692      -0.6644942
5.0544                 0.6587304      -0.6631581      -0.02062524     0.003510232    -0.0004594407     0.003380964      0.000809724    -0.002463402
                     -0.02522643   -0.0005930304         0.650672      -0.6698575      -0.02049333     0.003374726      -0.00055778     0.005009418
                     0.002438988     0.006741592      -0.02048817     0.003377483        0.6506436      -0.6698562      -0.02075128     0.001279089
                   -0.0009674283    -0.003640017     -0.000477467     0.003379749      -0.02050874     0.003469184        0.6531824      -0.6657852
5.056                  0.6572245      -0.6646516      -0.02082498     0.003434922    -0.0003573023     0.003527084      0.000713244      -0.0025398
                        -0.02555   -0.0004089922        0.6491262      -0.6710284      -0.02071831     0.003279492    -0.0003832918     0.005123105
                     0.002657609     0.006713298      -0.02071313     0.003282251         0.649098      -0.6710259      -0.02103811      0.00126027
                     -0.00109682    -0.003630642    -0.0003744511     0.003526164      -0.02071115     0.003392714        0.6516687      -0.6670826
5.0576                 0.6557059      -0.6661499      -0.02103144     0.003367584    -0.0002490914     0.003668446     0.0006139511    -0.002611791
                     -0.02586809   -0.0002142273        0.6475816      -0.6722062      -0.02095083     0.003193631    -0.0002049473     0.005229247
                      0.00287376     0.006676971      -0.02094563     0.003196375        0.6475537      -0.6722025      -0.02132824      0.00125258
                    -0.001225146    -0.003616298    -0.0002653556     0.003667776       -0.0209203     0.003324355        0.6501501      -0.6683865
5.0592                 0.6541742      -0.6676526      -0.02124426     0.003308454     -0.000135054     0.003804827     0.0005120543    -0.002679287
                     -0.02618032   -9.039019e-06        0.6460377       -0.673391      -0.02119045     0.003117398    -2.309078e-05     0.005327743
                     0.003087139     0.006632775      -0.02118525     0.003120139        0.6460099      -0.6733862       -0.0216212      0.00125608
                    -0.001352214    -0.003597066      -0.00015043     0.003804361      -0.02113582     0.003264342        0.6486264      -0.6696966
5.0608                  0.652629      -0.6691594      -0.02146306     0.003257769    -1.544492e-05     0.003936016     0.0004077579    -0.002742215
                     -0.02648635    0.0002062741        0.6444936      -0.6745832      -0.02143674     0.003051055     0.0001619354     0.005418506
                     0.003297457     0.006580885      -0.02143152     0.003053781        0.6444662      -0.6745774      -0.02191651     0.001270823
                     -0.00147784    -0.003573033    -2.992845e-05     0.003935707      -0.02135732     0.003212905        0.6470971      -0.6710129
5.0624                   0.65107      -0.6706699      -0.02168744     0.003215722     0.0001094777     0.004061813     0.0003012705    -0.002800507
                     -0.02678584    0.0004313826        0.6429493      -0.6757829      -0.02168923     0.002994805     0.0003497865     0.005501466
                     0.003504423     0.006521486        -0.021684     0.002997529        0.6429223      -0.6757759      -0.02221373     0.001296819
                    -0.001601835    -0.003544294     9.588608e-05     0.004061616      -0.02158441     0.003170244        0.6455621      -0.6723354
5.064                  0.6494973      -0.6721835      -0.02191705     0.003182504     0.0002394463     0.004182032     0.0001928012    -0.002854105
                     -0.02707846    0.0006659655        0.6414042        -0.67699      -0.02194749     0.002948875     0.0005401142     0.005576564
                     0.003707765     0.006454772      -0.02194224     0.002951593        0.6413774       -0.676982      -0.02251238     0.001334085
                    -0.001724033    -0.003510946     0.0002267449     0.004181902      -0.02181671     0.003136555        0.6440202       -0.673664
5.0656                 0.6479105         -0.6737      -0.02215147     0.003158289     0.0003741856     0.004296502     8.256106e-05    -0.002902961
                     -0.02736391    0.0009096878        0.6398574      -0.6782048      -0.02221105     0.002913438     0.0007325758      0.00564376
                     0.003907217     0.006380948      -0.02220578     0.002916143         0.639831      -0.6781958        -0.022812     0.001382599
                    -0.001844254    -0.003473098     0.0003623737     0.004296392      -0.02205382     0.003111999        0.6424718      -0.6749985
5.0672                 0.6463093      -0.6752191      -0.02239031     0.003143225     0.0005134205      0.00440506    -2.923668e-05    -0.002947037
                      -0.0276419     0.001162188        0.6383086      -0.6794274      -0.02247942     0.002888658     0.0009268276     0.005703025
                     0.004102528     0.006300226      -0.02247415     0.002891351         0.638283      -0.6794174      -0.02311214     0.001442331
                    -0.001962336    -0.003430862     0.0005024913     0.004404927      -0.02229533     0.003096724        0.6409164      -0.6763385
5.0688                 0.6446937        -0.67674      -0.02263317      0.00313745     0.0006568675     0.004507559    -0.0001423857    -0.002986301
                     -0.02791215     0.001423127        0.6367573       -0.680658      -0.02275217     0.002874676      0.001122524     0.005754349
                     0.004293446     0.006212831      -0.02274688     0.002877359        0.6367324      -0.6806466      -0.02341234     0.001513236
                    -0.002078121    -0.003384355     0.0006468139     0.004507359      -0.02254083     0.003090872        0.6393527      -0.6776848
5.0704                 0.6430635      -0.6782624      -0.02287966     0.003141078     0.0008042378     0.004603866    -0.0002566719    -0.003020734
                     -0.02817441     0.001692114        0.6352032      -0.6818959       -0.0230288     0.002871621      0.001319327     0.005797732
                     0.004479747     0.006118992       -0.0230235     0.002874291        0.6351783      -0.6818843      -0.02371217     0.001595231
                    -0.002191452    -0.003333703     0.0007950516     0.004603553      -0.02278993      0.00309455        0.6377817      -0.6790358
5.072                  0.6414179      -0.6797866      -0.02312936     0.003154202     0.0009552446      0.00469386    -0.0003718872    -0.003050321
                     -0.02842843     0.001968801        0.6336452      -0.6831422      -0.02330887     0.002879579      0.001516899     0.005833191
                     0.004661201     0.006018946      -0.02330354     0.002882238         0.633621      -0.6831293      -0.02401119      0.00168824
                    -0.002302181    -0.003279036      0.000946913     0.004693392      -0.02304221     0.003107858        0.6362017      -0.6803929
5.0736                  0.639758       -0.681311      -0.02338187     0.003176919      0.001109591     0.004777432    -0.0004878227    -0.003075061
                     -0.02867399     0.002252796        0.6320831      -0.6843961      -0.02359187     0.002898643      0.001714906     0.005860757
                     0.004837602      0.00591294      -0.02358653     0.002901288        0.6320594      -0.6843826      -0.02430897     0.001792143
                    -0.002410166    -0.003220485      0.001102104     0.004776768      -0.02329726     0.003130871        0.6346135      -0.6817543
5.0752                 0.6380824      -0.6828362      -0.02363679     0.003209278      0.001266984      0.00485449    -0.0006042704    -0.003094959
                     -0.02891089     0.002543711        0.6305163      -0.6856581      -0.02387735     0.002928861      0.001913015     0.005880472
                     0.005008748     0.005801225        -0.023872     0.002931498        0.6304936      -0.6856434      -0.02460508     0.001906834
                    -0.002515275    -0.003158192      0.001260325     0.004853587      -0.02355467     0.003163656        0.6330158      -0.6831212
5.0768                 0.6363923      -0.6843606      -0.02389372     0.003251324      0.001427125     0.004924951    -0.0007210258    -0.003110028
                     -0.02913893     0.002841155        0.6289445      -0.6869276      -0.02416483      0.00297028        0.0021109     0.005892395
                     0.005174451     0.005684058      -0.02415946     0.002972907        0.6289225      -0.6869121      -0.02489911     0.002032167
                    -0.002617377    -0.003092298      0.001421278     0.004923768      -0.02381403     0.003206248         0.631409      -0.6844922
5.0784                 0.6346865       -0.685885      -0.02415224     0.003303099      0.001589715     0.004988747    -0.0008378853    -0.003120291
                     -0.02935795     0.003144734        0.6273673      -0.6882046      -0.02445385     0.003022915      0.002308241     0.005896595
                     0.005334533     0.005561705      -0.02444846     0.003025523        0.6273458      -0.6881884      -0.02519065     0.002167979
                    -0.002716349    -0.003022952      0.001584663     0.004987245      -0.02407493     0.003258682        0.6297922      -0.6858681
5.08                   0.6329652      -0.6874085      -0.02441196     0.003364601      0.001754454     0.005045825    -0.0009546477    -0.003125779
                     -0.02956778     0.003454041        0.6257833      -0.6894895      -0.02474393     0.003086769      0.002504721     0.005893157
                     0.005488832     0.005434434      -0.02473853      0.00308936        0.6257626      -0.6894727      -0.02547932     0.002314116
                    -0.002812077    -0.002950304      0.001750176     0.005043967      -0.02433698     0.003320953        0.6281651      -0.6872481
5.0816                 0.6312287      -0.6889305      -0.02467247      0.00343583      0.001921046     0.005096145     -0.001071117    -0.003126529
                     -0.02976829     0.003768698        0.6241926      -0.6907821      -0.02503462     0.003161818      0.002700029     0.005882177
                     0.005637195     0.005302519       -0.0250292     0.003164395        0.6241732      -0.6907641      -0.02576471     0.002470378
                    -0.002904454    -0.002874509      0.001917522      0.00509389      -0.02459975     0.003393066         0.626528      -0.6886318
5.0832                  0.629477      -0.6904505      -0.02493339     0.003516764      0.002089189     0.005139675     -0.001187094     -0.00312259
                     -0.02995936     0.004088271        0.6225953      -0.6920813      -0.02532545     0.003248017      0.002893866     0.005863762
                      0.00577948     0.005166237      -0.02532002     0.003250575        0.6225761      -0.6920633      -0.02604647     0.002636571
                    -0.002993377    -0.002795727      0.002086396     0.005136989      -0.02486286     0.003474973        0.6248803       -0.690019
5.0848                 0.6277093      -0.6919686      -0.02519433      0.00360736      0.002258586     0.005176403      -0.00130239    -0.003114017
                     -0.03014089     0.004412369          0.62099      -0.6933882      -0.02561598     0.003345307      0.003085928     0.005838032
                     0.005915562     0.005025871      -0.02561053     0.003347851        0.6209719      -0.6933694      -0.02632422     0.002812477
                    -0.003078751    -0.002714117        0.0022565     0.005173249      -0.02512591     0.003566655        0.6232213      -0.6914098
5.0864                 0.6259261      -0.6934843      -0.02545488     0.003707558      0.002428943     0.005206324     -0.001416818     -0.00310087
                     -0.03031278     0.004740582        0.6193766       -0.694702      -0.02590576     0.003453615       0.00327593     0.005805122
                     0.006045322     0.004881703      -0.02590028     0.003456147        0.6193592      -0.6946825      -0.02659762     0.002997882
                     -0.00316049    -0.002629843      0.002427537      0.00520267       -0.0253885     0.003668039        0.6215507      -0.6928039
5.088                   0.624128      -0.6949962      -0.02571468     0.003817293      0.002599962     0.005229451     -0.001530192    -0.003083219
                     -0.03047498     0.005072486        0.6177545      -0.6960228      -0.02619434     0.003572836       0.00346359     0.005765171
                      0.00616866     0.004734024      -0.02618885     0.003575347        0.6177382      -0.6960025      -0.02686633     0.003192521
                    -0.003238514     -0.00254307       0.00259921     0.005225263      -0.02565026     0.003779052        0.6198691      -0.6942003
5.0896                 0.6223141      -0.6965052      -0.02597336     0.003936482      0.002771354     0.005245805     -0.001642332    -0.003061141
                     -0.03062743     0.005407699        0.6161234      -0.6973497       -0.0264813     0.003702864      0.003648632     0.005718334
                     0.006285483     0.004583119      -0.02647578     0.003705363        0.6161078      -0.6973293      -0.02713001     0.003396163
                     -0.00331275    -0.002453968      0.002771229     0.005241053      -0.02591081     0.003899606        0.6181754      -0.6955993
5.0912                  0.620485      -0.6980099      -0.02623053     0.004065015       0.00294283     0.005255422     -0.001753066    -0.003034719
                     -0.03077009     0.005745792        0.6144828      -0.6986833       -0.0267662     0.003843572      0.003830794     0.005664776
                     0.006395712     0.004429284      -0.02676066     0.003846044         0.614468      -0.6986625      -0.02738837     0.003608539
                    -0.003383131    -0.002362705        0.0029433     0.005250074      -0.02616976     0.004029594        0.6164699      -0.6970004
5.0928                 0.6186404      -0.6995105      -0.02648584      0.00420278      0.003114105     0.005258348     -0.001862221    -0.003004045
                     -0.03090294     0.006086381        0.6128318      -0.7000233      -0.02704863     0.003994792      0.004009816     0.005604669
                      0.00649928     0.004272807      -0.02704308     0.003997241        0.6128182      -0.7000018      -0.02764108     0.003829364
                    -0.003449602    -0.002269453      0.003115142     0.005252378      -0.02642676     0.004168882        0.6147521      -0.6984032
5.0944                 0.6167805      -0.7010066      -0.02673893     0.004349634        0.0032849     0.005254642     -0.001969631    -0.002969215
                       -0.031026     0.006429043        0.6111712      -0.7013682       -0.0273282     0.004156368      0.004185452     0.005538199
                     0.006596135     0.004113983      -0.02732263     0.004158803        0.6111584      -0.7013465      -0.02788788     0.004058365
                     -0.00351211    -0.002174383       0.00328647     0.005248022      -0.02668145     0.004317354        0.6130216      -0.6998079
5.096                  0.6149055      -0.7024973      -0.02698947     0.004505453      0.003454937     0.005244376     -0.002075138    -0.002930331
                     -0.03113927      0.00677338        0.6094992      -0.7027194      -0.02760449     0.004328125      0.004357463     0.005465555
                     0.006686234     0.003953103       -0.0275989     0.004330531        0.6094872      -0.7026975      -0.02812849     0.004295237
                    -0.003570613    -0.002077669      0.003457009      0.00523708      -0.02693349     0.004474841        0.6112787      -0.7012132
5.0976                 0.6130157      -0.7039824      -0.02723711     0.004670053      0.003623946      0.00522763     -0.002178586    -0.002887503
                     -0.03124277     0.007119015         0.607816      -0.7040758      -0.02787713     0.004509854      0.004525624      0.00538694
                     0.006769546     0.003790462      -0.02787152     0.004512242        0.6078054      -0.7040532      -0.02836266     0.004539672
                    -0.003625071    -0.001979485      0.003626486     0.005219634      -0.02718253      0.00464119        0.6095227      -0.7026197
5.0992                 0.6111106      -0.7054618      -0.02748153     0.004843284      0.003791662     0.005204498     -0.002279827    -0.002840844
                     -0.03133656     0.007465536        0.6061216      -0.7054368      -0.02814575     0.004701356      0.004689715     0.005302562
                     0.006846055      0.00362635      -0.02814012     0.004703723        0.6061116      -0.7054142      -0.02859013     0.004791382
                    -0.003675458    -0.001880004      0.003794636     0.005195779      -0.02742825     0.004816227         0.607754      -0.7040263
5.1008                 0.6091909      -0.7069349       -0.0277224     0.005024947      0.003957824     0.005175082     -0.002378717    -0.002790475
                     -0.03142071     0.007812563        0.6044152      -0.7068025      -0.02840997     0.004902391      0.004849528     0.005212639
                     0.006915754     0.003461058      -0.02840433     0.004904734        0.6044062      -0.7067796      -0.02881069     0.005050019
                    -0.003721752    -0.001779399      0.003961196     0.005165621      -0.02767032     0.004999761        0.6059719      -0.7054332
5.1024                 0.6072564      -0.7084013      -0.02795943     0.005214858       0.00412218     0.005139497      -0.00247512    -0.002736521
                     -0.03149529     0.008159724        0.6026965      -0.7081724      -0.02866945     0.005112728      0.005004869     0.005117393
                     0.006978649     0.003294874       -0.0286638     0.005115045        0.6026883      -0.7081496      -0.02902412     0.005315272
                    -0.003763937    -0.001677846      0.004125914     0.005129274      -0.02790844     0.005191589        0.6041767      -0.7068397
5.104                  0.6053076      -0.7098605      -0.02819232     0.005412804      0.004284484     0.005097867     -0.002568903    -0.002679112
                     -0.03156039     0.008506628        0.6009649      -0.7095465      -0.02892386     0.005332115      0.005155548     0.005017054
                     0.007034759     0.003128084      -0.02891819      0.00533441         0.600958      -0.7095232      -0.02923022     0.005586803
                    -0.003802005    -0.001575516      0.004288544     0.005086864      -0.02814231     0.005391497        0.6023678      -0.7082459
5.1056                  0.603344      -0.7113128      -0.02842078     0.005618554      0.004444495     0.005050323     -0.002659942    -0.002618382
                     -0.03161612      0.00885291        0.5992207      -0.7109237      -0.02917287     0.005560285      0.005301394      0.00491186
                     0.007084111     0.002960973      -0.02916718     0.005562557        0.5992146      -0.7109004      -0.02942881     0.005864268
                    -0.003835956    -0.001472582      0.004448843     0.005038526      -0.02837164     0.005599254        0.6005457      -0.7096508
5.1072                 0.6013666      -0.7127572      -0.02864453     0.005831902      0.004601981      0.00499701     -0.002748122    -0.002554468
                      -0.0316626     0.009198211        0.5974631      -0.7123044      -0.02941617     0.005796973      0.005442239     0.004802053
                     0.007126747     0.002793822      -0.02941046     0.005799212        0.5974577      -0.7122813      -0.02961974     0.006147334
                    -0.003865795    -0.001369214       0.00460658     0.004984404      -0.02859616     0.005814648        0.5987101       -0.711054
5.1088                 0.5993749      -0.7141936      -0.02886333     0.006052592       0.00475672      0.00493808     -0.002833328    -0.002487516
                     -0.03169997     0.009542185        0.5956922      -0.7136875      -0.02965347     0.006041862      0.005577934      0.00468788
                     0.007162717     0.002626907      -0.02964774     0.006044081        0.5956873      -0.7136648      -0.02980285     0.006435639
                    -0.003891536    -0.001265581      0.004761531     0.004924652      -0.02881561     0.006037413        0.5968603       -0.712456
5.1104                 0.5973692      -0.7156219      -0.02907692     0.006280379      0.004908495     0.004873691     -0.002915457    -0.002417669
                     -0.03172838     0.009884469        0.5939073      -0.7150732      -0.02988448     0.006294682      0.005708336     0.004569592
                     0.007192083     0.002460501      -0.02987874     0.006296872        0.5939035      -0.7150504        -0.029978     0.006728842
                    -0.003913199    -0.001161853       0.00491348     0.004859432      -0.02902973     0.006267297        0.5949972      -0.7138556
5.112                  0.5953503      -0.7170413      -0.02928505     0.006515012      0.005057097     0.004804013     -0.002994411    -0.002345078
                     -0.03174799      0.01022474         0.592108      -0.7164612      -0.03010895     0.006555114      0.005833318     0.004447446
                      0.00721492     0.002294874      -0.03010318      0.00655728        0.5921054      -0.7164382      -0.03014508     0.007026589
                    -0.003930809    -0.001058194      0.005062219     0.004788913      -0.02923829      0.00650406        0.5931201      -0.7152528
5.1136                 0.5933182      -0.7184514      -0.02948751     0.006756214      0.005202328     0.004729221       -0.0030701    -0.002269896
                     -0.03175897      0.01056266        0.5902947      -0.7178504      -0.03032661     0.006822837       0.00595276     0.004321701
                      0.00723131     0.002130289      -0.03032083     0.006824983        0.5902929      -0.7178277      -0.03030398     0.007328518
                      -0.0039444   -0.0009547673      0.005207545     0.004713274      -0.02944107     0.006747406        0.5912289      -0.7166473
5.1152                 0.5912724      -0.7198528      -0.02968409     0.007003727      0.005343998     0.004649499     -0.003142437    -0.002192277
                     -0.03176151      0.01089791        0.5884675      -0.7192402      -0.03053723     0.007097537      0.006066557      0.00419262
                     0.007241346     0.001967005      -0.03053143     0.007099657        0.5884665      -0.7192178      -0.03045462     0.007634267
                    -0.003954011   -0.0008517358      0.005349272     0.004632698      -0.02963786      0.00699707        0.5893243      -0.7180384
5.1168                 0.5892138      -0.7212446      -0.02987459     0.007257263      0.005481927     0.004565036      -0.00321135    -0.002112378
                     -0.03175581       0.0112302        0.5866249      -0.7206315       -0.0307406     0.007378884      0.006174614      0.00406047
                     0.007245133     0.001805276      -0.03073479     0.007380966        0.5866246      -0.7206092      -0.03059693     0.007943483
                    -0.003959686   -0.0007492573      0.005487219     0.004547379      -0.02982845     0.007252772        0.5874053      -0.7194263
5.1184                 0.5871429      -0.7226263      -0.03005883     0.007516542      0.005615942      0.00447603     -0.003276765    -0.002030361
                     -0.03174208      0.01155921        0.5847673      -0.7220229      -0.03093651     0.007666533      0.006276851     0.003925515
                     0.007242781     0.001645349      -0.03093068     0.007668576        0.5847687      -0.7220003      -0.03073085     0.008255809
                    -0.003961479   -0.0006474881      0.005621215     0.004457513      -0.03001266     0.007514215        0.5854733      -0.7208095
5.12                   0.5850593      -0.7239981      -0.03023663     0.007781266      0.005745882     0.004382682     -0.003338621    -0.001946386
                     -0.03172055      0.01188466        0.5828952      -0.7234138      -0.03112477     0.007960125      0.006373195     0.003788027
                     0.007234416     0.001487465      -0.03111893     0.007962145        0.5828968      -0.7233921      -0.03085634     0.008570883
                    -0.003959444   -0.0005465797      0.005751094     0.004363306      -0.03019033     0.007781098        0.5835267      -0.7221891
5.1216                 0.5829635      -0.7253597      -0.03040784     0.008051141      0.005871596     0.004285202     -0.003396864    -0.001860616
                     -0.03169144      0.01220627        0.5810076      -0.7248045      -0.03130521      0.00825933       0.00646359     0.003648274
                     0.007220166     0.001331861      -0.03129936     0.008261316        0.5810103      -0.7247827      -0.03097339     0.008888348
                    -0.003953648   -0.0004466828       0.00587671     0.004264968      -0.03036129     0.008053123        0.5815668      -0.7235637
5.1232                  0.580856      -0.7267107      -0.03057232     0.008325874      0.005992942       0.0041838     -0.003451445    -0.001773216
                     -0.03165498      0.01252379        0.5791049      -0.7261938      -0.03147767     0.008563777      0.006547987     0.003506529
                     0.007200174     0.001178763      -0.03147181     0.008565734        0.5791084      -0.7261724      -0.03108198      0.00920784
                    -0.003944157   -0.0003479412      0.005997918     0.004162711      -0.03052542     0.008329998        0.5795927      -0.7249334
5.1248                 0.5787368      -0.7280509      -0.03072993     0.008605156      0.006109787     0.004078697     -0.003502323    -0.001684351
                     -0.03161145      0.01283694        0.5771868      -0.7275817      -0.03164203     0.008873114      0.006626352     0.003363061
                     0.007174585     0.001028392      -0.03163615     0.008875043        0.5771908      -0.7275608      -0.03118212      0.00952902
                    -0.003931046   -0.0002504991      0.006114588     0.004056757      -0.03068257     0.008611402        0.5776049       -0.726298
5.1264                 0.5766061      -0.7293801      -0.03088058     0.008888678       0.00622201     0.003970115     -0.003549463    -0.001594187
                     -0.03156108       0.0131455        0.5752531      -0.7289675      -0.03179815      0.00918698      0.006698662     0.003218142
                     0.007143558    0.0008809643      -0.03179226     0.009188879        0.5752577      -0.7289472      -0.03127384      0.00985152
                    -0.003914394   -0.0001544936      0.006226596     0.003947332      -0.03083263     0.008897026        0.5756038      -0.7276564
5.128                  0.5744644      -0.7306982      -0.03102414      0.00917612      0.006329501     0.003858275      -0.00359284     -0.00150289
                     -0.03150417      0.01344923        0.5733038      -0.7303511      -0.03194594     0.009505007      0.006764904     0.003072042
                     0.007107255    0.0007366801      -0.03194003     0.009506875        0.5733092      -0.7303311      -0.03135715      0.01017501
                    -0.003894286    -6.00576e-05      0.006333837     0.003834655      -0.03097552     0.009186549        0.5735891       -0.729009
5.1296                 0.5723122      -0.7320049      -0.03116054     0.009467194       0.00643216     0.003743406     -0.003632434    -0.001410624
                     -0.03144095      0.01374792        0.5713388      -0.7317317      -0.03208528     0.009826829       0.00682508     0.002925024
                     0.007065847    0.0005957417      -0.03207937     0.009828663         0.571345      -0.7317123      -0.03143214      0.01049914
                    -0.003870812    3.267634e-05      0.006436209     0.003718961      -0.03111114     0.009479664         0.571561      -0.7303553
5.1312                 0.5701494      -0.7333001      -0.03128971     0.009761565      0.006529896     0.003625744     -0.003668234    -0.001317555
                     -0.03137175      0.01404138        0.5693583      -0.7331091      -0.03221614      0.01015209      0.006879199     0.002777356
                     0.007019515    0.0004583358      -0.03221021      0.01015389        0.5693653      -0.7330902      -0.03149884      0.01082357
                    -0.003844063    0.0001235861      0.006533621     0.003600483      -0.03123941     0.009776054        0.5695195      -0.7316948
5.1328                 0.5679762      -0.7345837      -0.03141157      0.01005895      0.006622626     0.003505525     -0.003700233    -0.001223851
                     -0.03129682      0.01432939        0.5673623      -0.7344828      -0.03233843       0.0104804      0.006927283     0.002629312
                      0.00696844    0.0003246468      -0.03233249      0.01048217        0.5673696      -0.7344642      -0.03155735      0.01114797
                    -0.003814142    0.0002125477      0.006625991      0.00347946       -0.0313603       0.0100754        0.5674649      -0.7330273
5.1344                 0.5657932      -0.7358555      -0.03152611      0.01035899      0.006710287     0.003382978     -0.003728433    -0.001129673
                     -0.03121647      0.01461178        0.5653504      -0.7358521      -0.03245212      0.01081141      0.006969366     0.002481143
                     0.006912817    0.0001948459      -0.03244618      0.01081313        0.5653585      -0.7358342      -0.03160775      0.01147201
                    -0.003781148    0.0002994473      0.006713258     0.003356124      -0.03147375      0.01037737        0.5653971      -0.7343526
5.136                  0.5636008      -0.7371152      -0.03163328      0.01066141       0.00679282      0.00325834     -0.003752844    -0.001035185
                       -0.031131      0.01488841        0.5633228      -0.7372168      -0.03255719      0.01114473      0.007005493     0.002333108
                      0.00685284     6.90968e-05      -0.03255123      0.01114643        0.5633316      -0.7371995      -0.03165016      0.01179538
                    -0.003745188    0.0003841735       0.00679536     0.003230714      -0.03157973      0.01068167        0.5633165      -0.7356701
5.1376                  0.561399      -0.7383629      -0.03173307      0.01096588      0.006870173     0.003131854     -0.003773479   -0.0009405485
                     -0.03104071       0.0151591        0.5612797      -0.7385765      -0.03265364      0.01148003      0.007035717     0.002185466
                     0.006788712    -5.24456e-05      -0.03264767       0.0114817         0.561289      -0.7385598      -0.03168469      0.01211776
                    -0.003706375     0.000466619      0.006872252     0.003103473      -0.03167824      0.01098797         0.561223      -0.7369798
5.1392                 0.5591882      -0.7395984      -0.03182547       0.0112721      0.006942312     0.003003757     -0.003790361   -0.0008459235
                     -0.03094592      0.01542373        0.5592211      -0.7399306      -0.03274146      0.01181693      0.007060103     0.002038464
                      0.00672064   -0.0001696356      -0.03273549      0.01181855        0.5592309      -0.7399146      -0.03171147      0.01243883
                    -0.003664821    0.0005466845      0.006943899     0.002974632      -0.03176928      0.01129595        0.5591168      -0.7382813
5.1408                 0.5569689      -0.7408217      -0.03191049      0.01157975      0.007009212     0.002874284     -0.003803518   -0.0007514679
                     -0.03084694      0.01568217         0.557147      -0.7412788      -0.03282068      0.01215505      0.007078728     0.001892351
                     0.006648836    -0.000282337       -0.0328147      0.01215664        0.5571573      -0.7412634      -0.03173066      0.01275832
                    -0.003620643    0.0006242728       0.00701027     0.002844445      -0.03185285      0.01160532        0.5569983      -0.7395743
5.1424                 0.5547409      -0.7420326      -0.03198816      0.01188853      0.007070854     0.002743677     -0.003812986   -0.0006573357
                     -0.03074407      0.01593431        0.5550576      -0.7426206      -0.03289134      0.01249407      0.007091676     0.001747368
                     0.006573516   -0.0003904225      -0.03288535      0.01249563        0.5550682      -0.7426058      -0.03174239      0.01307592
                    -0.003573963    0.0006992947      0.007071355     0.002713137      -0.03192898      0.01191575        0.5548677      -0.7408585
5.144                  0.5525051      -0.7432312      -0.03205852      0.01219814      0.007127234     0.002612174     -0.003818806   -0.0005636821
                     -0.03063764      0.01618006        0.5529528      -0.7439557       -0.0329535      0.01283361      0.007099042     0.001603751
                     0.006494902   -0.0004937749      -0.03294751      0.01283514        0.5529637      -0.7439415      -0.03174685      0.01339134
                    -0.003524903    0.0007716644       0.00712715     0.002580957      -0.03199773      0.01222694        0.5527247      -0.7421337
5.1456                 0.5502616      -0.7444171      -0.03212162      0.01250828      0.007178356     0.002480006     -0.003821024   -0.0004706557
                     -0.03052797      0.01641933        0.5508328      -0.7452835      -0.03300723      0.01317335      0.007100929      0.00146173
                     0.006413215   -0.0005922862      -0.03300123      0.01317483        0.5508443      -0.7452701       -0.0317442      0.01370434
                    -0.003473591    0.0008413011      0.007177657     0.002448136      -0.03205912       0.0125386          0.55057      -0.7433996
5.1472                 0.5480103      -0.7455906      -0.03217751      0.01281867      0.007224237     0.002347406     -0.003819694   -0.0003784042
                     -0.03041539      0.01665206        0.5486978      -0.7466037      -0.03305261      0.01351292      0.007097453     0.001321531
                     0.006328683   -0.0006858585       -0.0330466      0.01351437        0.5487096       -0.746591      -0.03173463      0.01401464
                    -0.003420154    0.0009081336      0.007222895     0.002314911      -0.03211324      0.01285043        0.5484037      -0.7446561
5.1488                  0.545752      -0.7467516      -0.03222628      0.01312899      0.007264899     0.002214612     -0.003814876   -0.0002870736
                     -0.03030021      0.01687819        0.5465479       -0.747916      -0.03308973        0.013852      0.007088735     0.001183373
                     0.006241535   -0.0007744032      -0.03308372      0.01385342        0.5465601      -0.7479039      -0.03171836      0.01432199
                    -0.003364722    0.0009720917       0.00726289      0.00218151      -0.03216017      0.01316212        0.5462258      -0.7459028
5.1504                 0.5434869      -0.7478999      -0.03226801      0.01343898      0.007300378     0.002081851     -0.003806634   -0.0001968022
                     -0.03018275      0.01709768        0.5443833      -0.7492198      -0.03311871      0.01419028      0.007074905     0.001047467
                     0.006152004   -0.0008578419      -0.03311269      0.01419166        0.5443955      -0.7492085      -0.03169557      0.01462614
                     -0.00330743     0.001033113      0.007297676     0.002048171      -0.03219999      0.01347342        0.5440369      -0.7471395
5.152                  0.5412152      -0.7490358       -0.0323028      0.01374838      0.007330718     0.001949349     -0.003795038   -0.0001077268
                     -0.03006335       0.0173105        0.5422041      -0.7505149      -0.03313967      0.01452741      0.007056102    0.0009140196
                     0.006060319   -0.0009361057      -0.03313365      0.01452876        0.5422168      -0.7505043      -0.03166649      0.01492686
                    -0.003248411     0.001091142      0.007327299     0.001915119      -0.03223279      0.01378402        0.5418367      -0.7483659
5.1536                 0.5389372       -0.750159      -0.03233076      0.01405688      0.007355974     0.001817329     -0.003780164   -1.998348e-05
                     -0.02994232      0.01751665        0.5400105      -0.7518009      -0.03315276      0.01486308      0.007032473     0.000783228
                      0.00596672    -0.001009136      -0.03314674       0.0148644        0.5400233       -0.751791      -0.03163135      0.01522394
                    -0.003187802     0.001146126      0.007351815     0.001782576      -0.03225872      0.01409364        0.5396258      -0.7495822
5.1552                 0.5366533      -0.7512698      -0.03235201      0.01436424      0.007376208     0.001686009     -0.003762094    6.630064e-05
                     -0.02981998      0.01771611        0.5378028      -0.7530774      -0.03315812        0.015197      0.007004172    0.0006552833
                     0.005871438    -0.001076884       -0.0331521      0.01519829        0.5378158      -0.7530683      -0.03159038      0.01551716
                    -0.003125739     0.001198019      0.007371288     0.001650763      -0.03227787      0.01440206        0.5374045      -0.7507877
5.1568                 0.5343637       -0.752368      -0.03236669       0.0146702      0.007391493     0.001555606     -0.003740912    0.0001510001
                     -0.02969665      0.01790891        0.5355812       -0.754344      -0.03315592      0.01552888      0.006971361    0.0005303684
                     0.005774715    -0.001139309      -0.03314989      0.01553012        0.5355942      -0.7543356       -0.0315438      0.01580634
                     -0.00306236     0.001246785      0.007385793     0.001519897       -0.0322904      0.01470897        0.5351729      -0.7519826
5.1584                 0.5320686      -0.7534537      -0.03237493       0.0149745      0.007401911     0.001426331     -0.003716708    0.0002339948
                     -0.02957266      0.01809506        0.5333458      -0.7556006      -0.03314632      0.01585842      0.006934206    0.0004086584
                     0.005676784    -0.001196384       -0.0331403      0.01585963        0.5333589      -0.7555928      -0.03149189      0.01609128
                    -0.002997805     0.001292387      0.007395411     0.001390188      -0.03229645      0.01501415         0.532931      -0.7531666
5.16                   0.5297682      -0.7545269       -0.0323769      0.01527692       0.00740755     0.001298388     -0.003689578    0.0003151679
                      -0.0294483      0.01827461        0.5310969      -0.7568466      -0.03312954      0.01618534      0.006892883    0.0002903201
                     0.005577882    -0.001248087      -0.03312351      0.01618651          0.53111      -0.7568396      -0.03143488       0.0163718
                    -0.002932212     0.001334797      0.007400234     0.001261843      -0.03229617      0.01531735        0.5306795      -0.7543395
5.1616                 0.5274631      -0.7555878      -0.03237274      0.01557721      0.007408509     0.001171979     -0.003659621    0.0003944082
                      -0.0293239      0.01844762        0.5288348      -0.7580818      -0.03310574      0.01650939      0.006847573    0.0001755121
                     0.005478245     -0.00129441      -0.03309971      0.01651052        0.5288479      -0.7580755      -0.03137305      0.01664776
                    -0.002865723     0.001373995       0.00740036     0.001135063      -0.03228972      0.01561833        0.5284184      -0.7555013
5.1632                 0.5251534      -0.7566364      -0.03236264      0.01587516      0.007404894     0.001047298      -0.00362694     0.000471609
                     -0.02919976      0.01861414        0.5265597      -0.7593059      -0.03307515      0.01683028      0.006798461     6.43842e-05
                     0.005378109    -0.001335352      -0.03306912      0.01683139        0.5265728      -0.7593005      -0.03130664      0.01691899
                    -0.002798477     0.001409963        0.0073959     0.001010044      -0.03227729      0.01591688         0.526148      -0.7566515
5.1648                 0.5228392      -0.7576728      -0.03234676      0.01617054      0.007396819    0.0009245357     -0.003591642    0.0005466691
                     -0.02907619      0.01877426        0.5242718      -0.7605187      -0.03303798       0.0171478      0.006745738   -4.292248e-05
                      0.00527771    -0.001370922      -0.03303196      0.01714886        0.5242848      -0.7605138      -0.03123594      0.01718537
                    -0.002730612     0.001442692      0.007386966    0.0008869751      -0.03225907      0.01621276        0.5238684      -0.7577904
5.1664                  0.520521      -0.7586971      -0.03232531      0.01646316      0.007384406     0.000803875     -0.003553837    0.0006194917
                     -0.02895347      0.01892805        0.5219715      -0.7617198      -0.03299446       0.0174617      0.006689602   -0.0001462758
                     0.005177276    -0.001401138      -0.03298843      0.01746274        0.5219845      -0.7617157      -0.03116122      0.01744677
                     -0.00266227     0.001472174      0.007373683    0.0007660413      -0.03223523      0.01650579        0.5215801      -0.7589179
5.168                   0.518199      -0.7597093      -0.03229846      0.01675282      0.007367786    0.0006854929      -0.00351364    0.0006899869
                     -0.02883191      0.01907563        0.5196589      -0.7629089      -0.03294482      0.01777178      0.006630251   -0.0002455526
                      0.00507704     -0.00142603       -0.0329388      0.01777277         0.519672      -0.7629055      -0.03108276      0.01770306
                    -0.002593588     0.001498414      0.007356182    0.0006474194      -0.03220599      0.01679575        0.5192833      -0.7600335
5.1696                 0.5158732      -0.7607096      -0.03226645      0.01703934       0.00734709    0.0005695596     -0.003471168    0.0007580682
                     -0.02871178       0.0192171        0.5173348       -0.764086      -0.03288931      0.01807779      0.006567891    -0.000340639
                      0.00497723    -0.001445633       -0.0328833      0.01807875        0.5173473      -0.7640833      -0.03100082      0.01795418
                    -0.002524705     0.001521415      0.007334598    0.0005312797      -0.03217154      0.01708249        0.5169784      -0.7611374
5.1712                 0.5135441      -0.7616981      -0.03222946      0.01732253      0.007322464    0.0004562387      -0.00342654    0.0008236541
                     -0.02859338      0.01935259        0.5149988      -0.7652505      -0.03282819      0.01837956      0.006502731   -0.0004314305
                     0.004878071    -0.001459994      -0.03282217      0.01838049        0.5150112      -0.7652485      -0.03091571          0.0182
                    -0.002455757      0.00154119      0.007309077    0.0004177862      -0.03213211       0.0173658        0.5146652      -0.7622296
5.1728                 0.5112117       -0.762675      -0.03218771      0.01760223      0.007294056    0.0003456865      -0.00337988    0.0008866715
                     -0.02847698      0.01948224        0.5126516      -0.7664027       -0.0327617      0.01867689      0.006434983    -0.000517832
                     0.004779784    -0.001469167      -0.03275568      0.01867778        0.5126639      -0.7664012      -0.03082771      0.01844048
                    -0.002386881     0.001557756      0.007279767    0.0003070951       -0.0320879      0.01764553        0.5123444      -0.7633097
5.1744                 0.5088764      -0.7636402      -0.03214144      0.01787829       0.00726202    0.0002380519     -0.003331312    0.0009470502
                     -0.02836282       0.0196062        0.5102935      -0.7675418      -0.03269011      0.01896963       0.00636486   -0.0005997579
                      0.00468259    -0.001473218      -0.03268411      0.01897048        0.5103055      -0.7675411       -0.0307371      0.01867555
                    -0.002318208     0.001571138      0.007246824    0.0001993557      -0.03203916      0.01792152        0.5100162       -0.764378
5.176                  0.5065385      -0.7645941      -0.03209085      0.01815058      0.007226516    0.0001334764     -0.003280963     0.001004727
                      -0.0282512      0.01972461        0.5079246       -0.768668       -0.0326137      0.01925759      0.006292579   -0.0006771322
                     0.004586703    -0.001472216       -0.0326077      0.01925841        0.5079364       -0.768668      -0.03064417      0.01890516
                    -0.002249874      0.00158136      0.007210413    9.470923e-05      -0.03198611      0.01819364        0.5076805      -0.7654342
5.1776                 0.5041977      -0.7655368      -0.03203619      0.01841895      0.007187709    3.209367e-05     -0.003228964     0.001059644
                     -0.02814235      0.01983764        0.5055455       -0.769781      -0.03253274      0.01954064      0.006218358   -0.0007498882
                     0.004492334    -0.001466244      -0.03252674      0.01954143        0.5055569      -0.7697816      -0.03054922      0.01912928
                    -0.002182009     0.001588458      0.007170698   -6.710596e-06      -0.03192898      0.01846176        0.5053381      -0.7664785
5.1792                 0.5018547      -0.7664684      -0.03197771       0.0186833       0.00714577   -6.597054e-05     -0.003175444     0.001111749
                     -0.02803653      0.01994548        0.5031564      -0.7708806      -0.03244752      0.01981864      0.006142421   -0.0008179693
                      0.00439969     -0.00145539      -0.03244153       0.0198194        0.5031675      -0.7708818      -0.03045251       0.0193479
                    -0.002114741     0.001592469       0.00712785   -0.0001047782      -0.03186803      0.01872573        0.5029889      -0.7675107
5.1808                 0.4995094      -0.7673891      -0.03191561       0.0189435      0.007100875   -0.0001605985     -0.003120536     0.001160996
                     -0.02793396      0.02004829        0.5007576      -0.7719669      -0.03235831      0.02009148      0.006064985   -0.0008813283
                     0.004308973     -0.00143975      -0.03235233       0.0200922        0.5007682      -0.7719687      -0.03035435      0.01956098
                    -0.002048196     0.001593437      0.007082047   -0.0001993761      -0.03180349      0.01898548         0.500633      -0.7685308
5.1824                 0.4971621      -0.7682989      -0.03185018      0.01919947        0.0070532   -0.0002516809     -0.003064373     0.001207345
                     -0.02783487      0.02014629        0.4983493      -0.7730394      -0.03226541      0.02035904      0.005986276   -0.0009399278
                     0.004220382    -0.001419429      -0.03225944      0.02035973        0.4983597      -0.7730418      -0.03025503      0.01976855
                    -0.001982499      0.00159141      0.007033468    -0.000290395      -0.03173561       0.0192409        0.4982711      -0.7695389
5.184                  0.4948128      -0.7691983      -0.03178163       0.0194511      0.007002929   -0.0003391166      -0.00300709     0.001250762
                     -0.02773947      0.02023968        0.4959322      -0.7740982      -0.03216912      0.02062123      0.005906516   -0.0009937395
                     0.004134106    -0.001394537      -0.03216316      0.02062189        0.4959421      -0.7741011      -0.03015482      0.01997062
                    -0.001917771     0.001586441      0.006982297   -0.0003777342      -0.03166463      0.01949189        0.4959031      -0.7705349
5.1856                 0.4924619      -0.7700871      -0.03171024      0.01969834      0.006950248    -0.000422813     -0.002948821     0.001291216
                     -0.02764799      0.02032865        0.4935062      -0.7751432      -0.03206971      0.02087798      0.005825927    -0.001042746
                     0.004050333    -0.001365194      -0.03206376      0.02087861        0.4935157      -0.7751467      -0.03005402      0.02016722
                     -0.00185413     0.001578587      0.006928723   -0.0004613016      -0.03159084      0.01973839        0.4935296      -0.7715189
5.1872                 0.4901094      -0.7709658      -0.03163625      0.01994113      0.006895346    -0.000502686     -0.002889703     0.001328686
                     -0.02756062      0.02041344        0.4910719      -0.7761742      -0.03196751      0.02112921      0.005744732    -0.001086937
                     0.003969246    -0.001331526      -0.03196156       0.0211298         0.491081      -0.7761781      -0.02995289      0.02035839
                    -0.001791692      0.00156791      0.006872934   -0.0005410133      -0.03151447      0.01998034        0.4911504       -0.772491
5.1888                 0.4877554      -0.7718343      -0.03155991      0.02017938      0.006838414   -0.0005786602      -0.00282987     0.001363155
                     -0.02747754      0.02049427        0.4886296      -0.7771913      -0.03186279      0.02137487      0.005663152    -0.001126314
                     0.003891017    -0.001293664      -0.03185685      0.02137543        0.4886381      -0.7771957      -0.02985173      0.02054417
                    -0.001730569     0.001554476      0.006815125   -0.0006167945      -0.03143577       0.0202177         0.488766       -0.773451
5.1904                 0.4854002      -0.7726932      -0.03148146      0.02041311      0.006779647   -0.0006506689     -0.002769459     0.001394611
                     -0.02739895      0.02057137        0.4861795      -0.7781942      -0.03175587      0.02161492      0.005581409    -0.001160887
                     0.003815816    -0.001251748      -0.03174994      0.02161545        0.4861877      -0.7781991      -0.02975078      0.02072465
                    -0.001670871     0.001538357      0.006755491   -0.0006885791      -0.03135499      0.02045041        0.4863765      -0.7743992
5.192                  0.4830433      -0.7735422      -0.03140117      0.02064225      0.006719241   -0.0007186543     -0.002708604     0.001423049
                       -0.027325      0.02064497        0.4837221      -0.7791831      -0.03164703      0.02184935      0.005499721    -0.001190676
                     0.003743806    -0.001205923      -0.03164111      0.02184983        0.4837295      -0.7791883      -0.02965034      0.02089989
                    -0.001612704     0.001519626      0.006694227   -0.0007563097      -0.03127242      0.02067846        0.4839822      -0.7753356
5.1936                 0.4806855      -0.7743819      -0.03131932      0.02086679      0.006657392   -0.0007825671     -0.002647441     0.001448469
                     -0.02725586      0.02071534        0.4812578      -0.7801577      -0.03153658      0.02207812      0.005418304    -0.001215708
                     0.003675143    -0.001156338      -0.03153067      0.02207859        0.4812645      -0.7801635      -0.02955065      0.02106999
                     -0.00155617     0.001498361      0.006631534   -0.0008199376       -0.0311883      0.02090184        0.4815834      -0.7762601
5.1952                 0.4783267      -0.7752123      -0.03123611      0.02108673      0.006594299    -0.000842367     -0.002586102     0.001470877
                     -0.02719168      0.02078271        0.4787866      -0.7811183      -0.03142481      0.02230125      0.005337374    -0.001236022
                     0.003609974    -0.001103151      -0.03141892      0.02230169        0.4787929      -0.7811244      -0.02945199      0.02123504
                    -0.001501366     0.001474646       0.00656761   -0.0008794235      -0.03110288      0.02112053        0.4791801       -0.777173
5.1968                 0.4759669      -0.7760336      -0.03115182      0.02130209      0.006530161   -0.0008980224     -0.002524722     0.001490286
                     -0.02713257      0.02084734        0.4763089      -0.7820647      -0.03131201      0.02251876      0.005257143    -0.001251662
                     0.003548443    -0.001046523      -0.03130613      0.02251917        0.4763147      -0.7820711       -0.0293546      0.02139514
                    -0.001448389     0.001448565      0.006502656   -0.0009347363      -0.03101644      0.02133455        0.4767728      -0.7780741
5.1984                 0.4736061      -0.7768461       -0.0310667      0.02151287      0.006465178   -0.0009495107     -0.002463432      0.00150671
                      -0.0270787       0.0209095        0.4738253       -0.782997       -0.0311985      0.02273066       0.00517782    -0.001262686
                     0.003490685   -0.0009866209      -0.03119264      0.02273103        0.4738305      -0.7830036      -0.02925874      0.02155043
                     -0.00139733     0.001420207      0.006436873   -0.0009858541       -0.0309292      0.02154392        0.4743611      -0.7789639
5.2                    0.4712444      -0.7776499        -0.030981      0.02171911      0.006399549   -0.0009968176     -0.002402363     0.001520175
                     -0.02703015      0.02096945        0.4713356       -0.783915      -0.03108455        0.022937      0.005099609    -0.001269155
                     0.003436826   -0.0009236146      -0.03107869      0.02293734        0.4713403       -0.783922      -0.02916463      0.02170104
                    -0.001348274     0.001389665      0.006370461    -0.001032764      -0.03084143      0.02174867         0.471946      -0.7798421
5.2016                 0.4688816      -0.7784454      -0.03089496      0.02192084      0.006333473    -0.001039938     -0.002341643     0.001530705
                     -0.02698705      0.02102745        0.4688407      -0.7848189      -0.03097045      0.02313784      0.005022714    -0.001271143
                     0.003386988   -0.0008576802      -0.03096459      0.02313815        0.4688445      -0.7848262      -0.02907253       0.0218471
                    -0.001301305     0.001357035      0.006303621    -0.001075461      -0.03075338      0.02194884        0.4695272      -0.7807091
5.2032                 0.4665184      -0.7792325      -0.03080882      0.02211813      0.006267149    -0.001078875     -0.002281398     0.001538338
                     -0.02694948      0.02108378        0.4663406      -0.7857088      -0.03085648      0.02333323      0.004947332    -0.001268729
                     0.003341282   -0.0007889967      -0.03085064      0.02333352        0.4663437      -0.7857164      -0.02898264      0.02198876
                    -0.001256501     0.001322413      0.006236551     -0.00111395      -0.03066528       0.0221445        0.4671049      -0.7815648
5.2048                 0.4641543      -0.7800116      -0.03072284      0.02231102      0.006200775    -0.001113641     -0.002221755     0.001543107
                     -0.02691751      0.02113872        0.4638356      -0.7865847      -0.03074293      0.02352326      0.004873659    -0.001262001
                     0.003299815   -0.0007177477      -0.03073709      0.02352352         0.463838      -0.7865924      -0.02889521      0.02212619
                    -0.001213936     0.001285902      0.006169451    -0.001148243      -0.03057739      0.02233571        0.4646793      -0.7824094
5.2064                 0.4617893      -0.7807828      -0.03063723      0.02249959      0.006134544    -0.001144256     -0.002162835     0.001545061
                     -0.02689123      0.02119254         0.461326      -0.7874467      -0.03063006      0.02370802       0.00480188    -0.001251055
                     0.003262682    -0.000644119      -0.03062424      0.02370826        0.4613279      -0.7874545      -0.02881043      0.02225955
                     -0.00117368     0.001247603      0.006102516    -0.001178362      -0.03048994      0.02252252        0.4622505       -0.783243
5.208                  0.4594237      -0.7815465      -0.03055224      0.02268394      0.006068654    -0.001170749     -0.002104759     0.001544243
                     -0.02687069      0.02124551        0.4588121      -0.7882949      -0.03051815      0.02388761      0.004732181    -0.001235994
                     0.003229973   -0.0005683006      -0.03051236      0.02388781        0.4588131      -0.7883028       -0.0287285      0.02238902
                    -0.001135798     0.001207623      0.006035944    -0.001204337      -0.03040317      0.02270505        0.4598187      -0.7840658
5.2096                 0.4570573      -0.7823028      -0.03046808      0.02286415      0.006003294    -0.001193157     -0.002047643     0.001540709
                     -0.02685593      0.02129793        0.4562941      -0.7891292      -0.03040746      0.02406215      0.004664742    -0.001216929
                     0.003201769   -0.0004904844      -0.03040168      0.02406232        0.4562947      -0.7891372      -0.02864964      0.02251479
                    -0.001100351      0.00116607      0.005969923    -0.001226205      -0.03031731      0.02288337        0.4573844      -0.7848779
5.2112                 0.4546901      -0.7830518      -0.03038497      0.02304031      0.005938654    -0.001211524     -0.001991603     0.001534517
                     -0.02684701      0.02135007        0.4537724      -0.7899499      -0.03029826      0.02423174      0.004599736    -0.001193978
                     0.003178143   -0.0004108648      -0.03029248       0.0242319        0.4537722      -0.7899581      -0.02857401      0.02263705
                    -0.001067394     0.001123053      0.005904647    -0.001244014      -0.03023256      0.02305761         0.454947      -0.7856795
5.2128                  0.452322      -0.7837937      -0.03030315      0.02321256      0.005874922    -0.001225905     -0.001936749     0.001525728
                     -0.02684393      0.02140221        0.4512471      -0.7907571      -0.03019077      0.02439656      0.004537329    -0.001167265
                     0.003159161   -0.0003296386      -0.03018501      0.02439668        0.4512464      -0.7907652      -0.02850181        0.022756
                    -0.001036979     0.001078684      0.005840302    -0.001257816      -0.03014917      0.02322788        0.4525073      -0.7864706
5.2144                 0.4499532      -0.7845289      -0.03022282        0.023381      0.005812278    -0.001236359      -0.00188319     0.001514409
                     -0.02684671      0.02145465        0.4487187      -0.7915508      -0.03008527      0.02455672      0.004477684     -0.00113692
                      0.00314488   -0.0002470041      -0.03007951      0.02455682        0.4487173       -0.791559       -0.0284332      0.02287185
                    -0.001009153     0.001033074      0.005777072    -0.001267675      -0.03006733      0.02339427        0.4500649      -0.7872514
5.216                  0.4475834      -0.7852573      -0.03014416      0.02354577      0.005750907    -0.001242956     -0.001831032     0.001500631
                     -0.02685536      0.02150764        0.4461872      -0.7923315      -0.02998198      0.02471239      0.004420957     -0.00110308
                     0.003135348   -0.0001631608      -0.02997624      0.02471246         0.446185      -0.7923395      -0.02836834      0.02298481
                   -0.0009839573    0.0009863393      0.005715139    -0.001273659      -0.02998725      0.02355697        0.4476205      -0.7880221
5.2176                 0.4452125      -0.7859794       -0.0300674      0.02370702      0.005690982    -0.001245771     -0.001780375     0.001484468
                     -0.02686984      0.02156149        0.4436529      -0.7930987      -0.02988111      0.02486373      0.004367297    -0.001065889
                     0.003130606   -7.830957e-05      -0.02987538      0.02486379        0.4436499      -0.7931068      -0.02830738      0.02309509
                   -0.0009614289    0.0009385942      0.005654677    -0.001275847      -0.02990913      0.02371609        0.4451735      -0.7887829
5.2192                 0.4428407      -0.7866951      -0.02999272      0.02386486      0.005632674    -0.001244887     -0.001731318     0.001466001
                     -0.02689017      0.02161646        0.4411161      -0.7938531       -0.0297829      0.02501094      0.004316845    -0.001025495
                     0.003130687    7.348087e-06      -0.02977719      0.02501097        0.4411125      -0.7938612      -0.02825044      0.02320295
                   -0.0009416001    0.0008899554      0.005595861    -0.001274321      -0.02983318      0.02387179        0.4427245      -0.7895338
5.2208                 0.4404678      -0.7874048      -0.02992029       0.0240195      0.005576155    -0.001240396     -0.001683955     0.001445309
                     -0.02691629      0.02167285        0.4385768      -0.7945946      -0.02968757      0.02515418      0.004269738   -0.0009820515
                     0.003135614    9.361031e-05      -0.02968187      0.02515418        0.4385728      -0.7946025      -0.02819766      0.02330859
                   -0.0009244986    0.0008405397       0.00553886    -0.001269175      -0.02975956      0.02402421        0.4402734       -0.790275
5.2224                 0.4380935      -0.7881086      -0.02985031      0.02417106      0.005521585    -0.001232394     -0.001638374     0.001422482
                     -0.02694818      0.02173091        0.4360355      -0.7953236       -0.0295953      0.02529365      0.004226104   -0.0009357175
                     0.003145405    0.0001802751      -0.02958962      0.02529363        0.4360307      -0.7953312      -0.02814919      0.02341226
                   -0.0009101473    0.0007904646      0.005483835    -0.001260506      -0.02968844      0.02417355        0.4378204      -0.7910068
5.224                  0.4357181      -0.7888066      -0.02978292      0.02431973      0.005469125    -0.001220984     -0.001594664     0.001397607
                     -0.02698575      0.02179093         0.433492        -0.79604       -0.0295063      0.02542957      0.004186064   -0.0008866564
                     0.003160067    0.0002671407      -0.02950063      0.02542952        0.4334866      -0.7960476      -0.02810508       0.0235142
                   -0.0008985633    0.0007398482      0.005430948     -0.00124842         -0.02962      0.02431997        0.4353652      -0.7917293
5.2256                 0.4333414      -0.7894991      -0.02971829      0.02446569      0.005418925    -0.001206277     -0.001552905     0.001370777
                     -0.02702898      0.02185318         0.430947      -0.7967441      -0.02942075      0.02556212      0.004149733    -0.000835036
                     0.003179601     0.000354006      -0.02941509      0.02556206        0.4309408      -0.7967515      -0.02806548      0.02361465
                     -0.00088976     0.000688809      0.005380351    -0.001233027      -0.02955442      0.02446365        0.4329083      -0.7924425
5.2272                 0.4309629       -0.790186      -0.02965659      0.02460911      0.005371136    -0.001188389     -0.001513176     0.001342088
                     -0.02707775      0.02191793        0.4284004      -0.7974362       -0.0293388      0.02569154      0.004117216   -0.0007810284
                     0.003203998    0.0004406706      -0.02933316      0.02569145        0.4283936      -0.7974433      -0.02803045      0.02371386
                   -0.0008837456    0.0006374645      0.005332191    -0.001214445      -0.02949183      0.02460476        0.4304495      -0.7931468
5.2288                 0.4285829      -0.7908678      -0.02959791      0.02475019      0.005325899    -0.001167443     -0.001475549     0.001311638
                       -0.027132      0.02198543        0.4258522      -0.7981163      -0.02926065      0.02581806      0.004088614    -0.000724809
                     0.003233243    0.0005269354      -0.02925503      0.02581794        0.4258448      -0.7981231      -0.02800007      0.02381208
                   -0.0008805238     0.000585933      0.005286611    -0.001192798      -0.02943237      0.02474353        0.4279889      -0.7938422
5.2304                 0.4262013      -0.7915445      -0.02954246      0.02488913       0.00528335    -0.001143565     -0.001440094     0.001279528
                     -0.02719164      0.02205595        0.4233029      -0.7987846      -0.02918644       0.0259419      0.004064017   -0.0006665568
                     0.003267312    0.0006126027      -0.02918082      0.02594176        0.4232948      -0.7987912      -0.02797441      0.02390957
                   -0.0008800927    0.0005343322      0.005243751    -0.001168214      -0.02937617      0.02488014        0.4255263       -0.794529
5.232                  0.4238173      -0.7922161       -0.0294903      0.02502613      0.005243621    -0.001116888     -0.001406873     0.001245862
                     -0.02725656      0.02212974        0.4207521      -0.7994415      -0.02911628      0.02606329      0.004043508   -0.0006064537
                     0.003306174    0.0006974766      -0.02911069      0.02606314        0.4207435      -0.7994477      -0.02795351      0.02400657
                   -0.0008824468    0.0004827784      0.005203736    -0.001140827      -0.02932338      0.02501479        0.4230619      -0.7952073
5.2336                 0.4214317       -0.792883      -0.02944157      0.02516139      0.005206835    -0.001087552     -0.001375948     0.001210744
                     -0.02732662      0.02220706        0.4182007      -0.8000872      -0.02905035      0.02618249      0.004027163   -0.0005446846
                      0.00334979    0.0007813632      -0.02904476      0.02618231        0.4181914       -0.800093      -0.02793743      0.02410336
                   -0.0008875752    0.0004313887      0.005166696    -0.001110778      -0.02927409       0.0251477        0.4205957      -0.7958772
5.2352                 0.4190438       -0.793545      -0.02939638      0.02529514      0.005173111    -0.001055698     -0.001347372     0.001174283
                     -0.02740172      0.02228814        0.4156479      -0.8007215      -0.02898875      0.02629973      0.004015049   -0.0004814364
                     0.003398114    0.0008640713      -0.02898317      0.02629954        0.4156382       -0.800727      -0.02792619      0.02420019
                   -0.0008954627    0.0003802776      0.005132745     -0.00107821      -0.02922843      0.02527908         0.418128       -0.796539
5.2368                 0.4166536      -0.7942025      -0.02935482      0.02542757      0.005142559    -0.001021474     -0.001321198     0.001136588
                     -0.02748173      0.02237322        0.4130945      -0.8013452      -0.02893157      0.02641529      0.004007225   -0.0004168984
                     0.003451091    0.0009454119      -0.02892601      0.02641507        0.4130842      -0.8013502      -0.02791983      0.02429731
                   -0.0009060894    0.0003295596      0.005101996    -0.001043272      -0.02918646      0.02540916        0.4156581      -0.7971928
5.2384                 0.4142608      -0.7948555      -0.02931698      0.02555891      0.005115286   -0.0009850318     -0.001297467     0.001097771
                     -0.02756649      0.02246255        0.4105404       -0.801958      -0.02887894      0.02652941      0.004003744   -0.0003512613
                     0.003508661     0.001025199      -0.02887339      0.02652917        0.4105296      -0.8019627      -0.02791833      0.02439499
                   -0.0009194313    0.0002793475      0.005074553    -0.001006116       -0.0291483      0.02553815        0.4131866      -0.7978386
5.24                   0.4118653      -0.7955042      -0.02928292      0.02568939      0.005091387   -0.0009465262     -0.001276224     0.001057942
                     -0.02765585      0.02255635        0.4079855      -0.8025605      -0.02883093      0.02664234      0.004004647   -0.0002847172
                     0.003570755     0.001103251      -0.02882539      0.02664209         0.407974      -0.8025647      -0.02792171      0.02449349
                   -0.0009354595    0.0002297529      0.005050514   -0.0009668992      -0.02911401      0.02566628        0.4107131      -0.7984767
5.2416                 0.4094672      -0.7961485      -0.02925273      0.02581924      0.005070955   -0.0009061162     -0.001257501     0.001017217
                     -0.02774968      0.02265482          0.40543      -0.8031529      -0.02878761      0.02675436      0.004009971   -0.0002174593
                       0.0036373     0.001179387      -0.02878209      0.02675408        0.4054181      -0.8031564      -0.02792997      0.02459306
                   -0.0009541409    0.0001808852      0.005029968   -0.0009257814      -0.02908365      0.02579379        0.4082377      -0.7991074
5.2432                 0.4070658      -0.7967886      -0.02922646      0.02594866      0.005054073   -0.0008639639      -0.00124133    0.0009757094
                     -0.02784776      0.02275821         0.402874       -0.803735      -0.02874905      0.02686574      0.004019742   -0.0001496815
                     0.003708211     0.001253433      -0.02874354      0.02686544        0.4028617      -0.8037382      -0.02794305      0.02469396
                   -0.0009754386    0.0001328531      0.005013001   -0.0008829262       -0.0290573      0.02592089        0.4057603      -0.7997306
5.2448                 0.4046613      -0.7974246      -0.02920415      0.02607792      0.005040816   -0.0008202346     -0.001227737    0.0009335344
                     -0.02794996       0.0228667        0.4003174      -0.8043074      -0.02871529      0.02697673      0.004033978   -8.157777e-05
                     0.003783404     0.001325216       -0.0287098      0.02697642        0.4003044      -0.8043101      -0.02796096      0.02479646
                   -0.0009993108    8.576162e-05      0.004999686   -0.0008384997      -0.02903498      0.02604784        0.4032809      -0.8003466
5.2464                 0.4022532      -0.7980565      -0.02918584      0.02620722      0.005031255   -0.0007750958     -0.001216743    0.0008908083
                     -0.02805606       0.0229805        0.3977603      -0.8048703      -0.02868639      0.02708761      0.004052692    -1.33424e-05
                      0.00386278      0.00139457      -0.02868091      0.02708728        0.3977469      -0.8048725      -0.02798362       0.0249008
                    -0.001025712    3.971531e-05      0.004990094   -0.0007926711      -0.02901674      0.02617485        0.4007994      -0.8009554
5.248                  0.3998416      -0.7986847      -0.02917156      0.02633681      0.005025452   -0.0007287178     -0.001208363    0.0008476471
                     -0.02816589      0.02309979        0.3952028      -0.8054238      -0.02866237      0.02719866      0.004075883    5.483083e-05
                     0.003946241     0.001461332       -0.0286569      0.02719831         0.395189      -0.8054253        -0.028011      0.02500724
                    -0.001054594   -5.184447e-06      0.004984287   -0.0007456114      -0.02900261      0.02630217        0.3983155      -0.8015574
5.2496                 0.3974261      -0.7993086      -0.02916131      0.02646692      0.005023459   -0.0006812725     -0.001202609    0.0008041678
                     -0.02827924      0.02322478        0.3926449      -0.8059681      -0.02864322      0.02731014       0.00410355    0.0001227488
                      0.00403368     0.001525344      -0.02863777      0.02730978        0.3926305      -0.8059691      -0.02804302      0.02511604
                    -0.001085902   -4.883805e-05      0.004982316   -0.0006974938      -0.02899258      0.02643004        0.3958295      -0.8021523
5.2512                 0.3950069      -0.7999288      -0.02915512      0.02659778      0.005025326   -0.0006329336     -0.001199486    0.0007604859
                     -0.02839593      0.02335563        0.3900862      -0.8065035      -0.02862899      0.02742233      0.004135676    0.0001902193
                     0.004124983     0.001586451      -0.02862355      0.02742195        0.3900715      -0.8065039      -0.02807961      0.02522741
                    -0.001119579   -9.114883e-05       0.00498423   -0.0006484932      -0.02898667      0.02655869        0.3933412      -0.8027407
5.2528                 0.3925832      -0.8005451      -0.02915298      0.02672962      0.005031091   -0.0005838762     -0.001198996     0.000716718
                     -0.02851573      0.02349249        0.3875273      -0.8070302      -0.02861963       0.0275355      0.004172241    0.0002570515
                     0.004220033     0.001644507       -0.0286142      0.02753509        0.3875123        -0.80703      -0.02812067      0.02534163
                    -0.001155565   -0.0001320232      0.004990066   -0.0005987856      -0.02898489      0.02668834        0.3908503      -0.8033224
5.2544                 0.3901552      -0.8011576      -0.02915487      0.02686268      0.005040784   -0.0005342761     -0.001201134    0.0006729795
                     -0.02863843      0.02363555        0.3849674      -0.8075486      -0.02861515      0.02764991      0.004213217    0.0003230562
                     0.004318706     0.001699367      -0.02860973      0.02764949        0.3849521      -0.8075476      -0.02816615      0.02545892
                    -0.001193797   -0.0001713691      0.004999857   -0.0005485481       -0.0289872      0.02681927         0.388357      -0.8038977
5.256                  0.3877223      -0.8017662      -0.02916076      0.02699721      0.005054433   -0.0004843104     -0.001205893    0.0006293856
                      -0.0287638      0.02378493        0.3824071      -0.8080584       -0.0286155      0.02776585      0.004258567    0.0003880462
                     0.004420875     0.001750894       -0.0286101       0.0277654        0.3823915      -0.8080569       -0.0282159      0.02557953
                    -0.001234205   -0.0002090987      0.005013625   -0.0004979585      -0.02899358      0.02695168        0.3858607      -0.8044665
5.2576                 0.3852849       -0.802371      -0.02917063      0.02713342      0.005072052   -0.0004341561      -0.00121326    0.0005860507
                     -0.02889162       0.0239408        0.3798463      -0.8085603      -0.02862066      0.02788356      0.004308246    0.0004518364
                     0.004526403     0.001798958      -0.02861526       0.0278831        0.3798304       -0.808558      -0.02826983      0.02570367
                     -0.00127672   -0.0002451266      0.005031386    -0.000447195        -0.029004      0.02708583        0.3833618      -0.8050292
5.2592                 0.3828422      -0.8029721      -0.02918443      0.02727155       0.00509365   -0.0003839905     -0.001223215    0.0005430873
                     -0.02902166      0.02410327        0.3772846      -0.8090542      -0.02863055      0.02800333      0.004362203    0.0005142441
                     0.004635156      0.00184343      -0.02862516      0.02800287        0.3772685      -0.8090513      -0.02832781      0.02583158
                    -0.001321268    -0.000279371       0.00505315   -0.0003964357      -0.02901842      0.02722192        0.3808599      -0.8055856
5.2608                 0.3803945      -0.8035693       -0.0292021      0.02741182      0.005119231   -0.0003339905     -0.001235738    0.0005006081
                     -0.02915368      0.02427249        0.3747222      -0.8095404      -0.02864512      0.02812542      0.004420379    0.0005750901
                     0.004746991     0.001884192      -0.02863975      0.02812493        0.3747058      -0.8095368      -0.02838971      0.02596347
                    -0.001367772    -0.000311753      0.005078915   -0.0003458585      -0.02903677       0.0273602         0.378355      -0.8061359
5.2624                  0.377941      -0.8041626       -0.0292236      0.02755446      0.005148788   -0.0002843325       -0.0012508    0.0004587233
                     -0.02928744      0.02444854        0.3721587      -0.8100191      -0.02866429      0.02825008      0.004482709    0.0006341973
                     0.004861759     0.001921128      -0.02865892      0.02824958        0.3721422      -0.8100148      -0.02845538      0.02609956
                    -0.001416152   -0.0003421962      0.005108678   -0.0002956407        -0.029059      0.02750091         0.375847      -0.8066803
5.264                  0.3754819      -0.8047522      -0.02924882       0.0276997      0.005182307   -0.0002351919     -0.001268369    0.0004175413
                      -0.0294227      0.02463155        0.3695944      -0.8104905      -0.02868798      0.02837757      0.004549119     0.000691393
                     0.004979313     0.001954132      -0.02868262      0.02837705        0.3695776      -0.8104855      -0.02852469      0.02624006
                    -0.001466327   -0.0003706302      0.005142423   -0.0002459587      -0.02908502      0.02764425        0.3733354      -0.8072187
5.2656                  0.373017      -0.8053376      -0.02927771      0.02784774      0.005219769   -0.0001867433     -0.001288411    0.0003771702
                     -0.02955921      0.02482161        0.3670289      -0.8109547      -0.02871607      0.02850815      0.004619529    0.0007465075
                     0.005099497     0.001983102      -0.02871073      0.02850761        0.3670121       -0.810949      -0.02859746      0.02638516
                     -0.00151821   -0.0003969856      0.005180129   -0.0001969875      -0.02911475      0.02779045        0.3708204      -0.8077513
5.2672                 0.3705457      -0.8059193      -0.02931017      0.02799881      0.005261146   -0.0001391594     -0.001310884    0.0003377144
                     -0.02969674      0.02501879         0.364462       -0.811412      -0.02874848      0.02864205      0.004693854    0.0007993755
                     0.005222156     0.002007943      -0.02874316       0.0286415        0.3644452      -0.8114054      -0.02867355      0.02653507
                    -0.001571716   -0.0004211978      0.005221768   -0.0001489007       -0.0291481      0.02793973        0.3683015      -0.8082781
5.2688                  0.368068      -0.8064967      -0.02934611      0.02815311      0.005306401    -9.26114e-05     -0.001335744    0.0002992772
                       -0.029835      0.02522319        0.3618941      -0.8118623      -0.02878508      0.02877953         0.004772    0.0008498353
                     0.005347127     0.002028566      -0.02877977      0.02877896        0.3618771      -0.8118551      -0.02875278      0.02668996
                    -0.001626754   -0.0004432058      0.005267303   -0.0001018703      -0.02918496      0.02809231        0.3657789      -0.8087993
5.2704                  0.365584      -0.8070702      -0.02938541      0.02831086      0.005355496   -4.726825e-05     -0.001362942    0.0002619599
                     -0.02997377      0.02543486        0.3593245       -0.812306      -0.02882574      0.02892082      0.004853869    0.0008977302
                     0.005474251     0.002044889      -0.02882044      0.02892024        0.3593074      -0.8122981      -0.02883496      0.02685002
                    -0.001683234   -0.0004629524      0.005316692   -5.606595e-05      -0.02922524      0.02824839        0.3632525      -0.8093146
5.272                   0.363093      -0.8076394      -0.02942795      0.02847226       0.00540838    -3.29664e-06     -0.001392426    0.0002258603
                     -0.03011277      0.02565385        0.3567533      -0.8127432      -0.02887034      0.02906615      0.004939355    0.0009429078
                     0.005603359     0.002056838      -0.02886504      0.02906555        0.3567359      -0.8127345       -0.0289199      0.02701544
                    -0.001741061   -0.0004803844      0.005369885   -1.165484e-05       -0.0292688      0.02840816        0.3607219      -0.8098244
5.2736                  0.360595      -0.8082045      -0.02947361      0.02863751      0.005464999    3.913936e-05      -0.00142414    0.0001910745
                     -0.03025177      0.02588023          0.35418      -0.8131741      -0.02891871      0.02921575      0.005028348    0.0009852208
                     0.005734285     0.002064344      -0.02891342      0.02921513        0.3541628      -0.8131646      -0.02900744      0.02718635
                    -0.001800142   -0.0004954518      0.005426826    3.119836e-05      -0.02931553      0.02857185        0.3581867      -0.8103285
5.2752                 0.3580897      -0.8087651      -0.02952225      0.02880679      0.005525288    7.987864e-05     -0.001458022    0.0001576958
                     -0.03039048      0.02611402         0.351605      -0.8135985      -0.02897069      0.02936985      0.005120732     0.001024527
                      0.00586686     0.002067346      -0.02896542       0.0293692        0.3515878      -0.8135884      -0.02909734      0.02736293
                    -0.001860378   -0.0005081097      0.005487451    7.233199e-05      -0.02936528      0.02873963        0.3556473      -0.8108271
5.2768                 0.3555773      -0.8093211      -0.02957374      0.02898029      0.005589181    0.0001187632     -0.001494009    0.0001258143
                     -0.03052867      0.02635525        0.3490278      -0.8140169      -0.02902613      0.02952863      0.005216384     0.001060689
                     0.006000912     0.002065789      -0.02902088      0.02952798        0.3490106       -0.814006      -0.02918941      0.02754533
                    -0.001921672   -0.0005183167      0.005551691    0.0001115876       -0.0294179       0.0289117         0.353103      -0.8113201
5.2784                 0.3530568      -0.8098726      -0.02962794      0.02915819      0.005656601    0.0001556385     -0.001532034     9.55174e-05
                     -0.03066608      0.02660394        0.3464483      -0.8144292      -0.02908486      0.02969232      0.005315179     0.001093576
                     0.006136269     0.002059626      -0.02907961      0.02969165        0.3464313      -0.8144176      -0.02928345      0.02773369
                    -0.001983924   -0.0005260351      0.005619469    0.0001488101      -0.02947324      0.02908824        0.3505539      -0.8118074
5.28                   0.3505287      -0.8104194      -0.02968466      0.02934068       0.00572747    0.0001903537     -0.001572026    6.688861e-05
                     -0.03080243       0.0268601        0.3438661      -0.8148357      -0.02914669      0.02986112      0.005416985     0.001123061
                     0.006272758     0.002048815      -0.02914146      0.02986043        0.3438493      -0.8148233      -0.02937926      0.02792812
                    -0.002047034   -0.0005312317      0.005690703    0.0001838485      -0.02953118      0.02926941        0.3479999      -0.8122892
5.2816                 0.3479923      -0.8109614      -0.02974379      0.02952791      0.005801698    0.0002227618     -0.001613911    4.000909e-05
                     -0.03093748      0.02712372        0.3412814      -0.8152363      -0.02921145       0.0300352      0.005521664     0.001149026
                     0.006410205     0.002033324       -0.0292062       0.0300345        0.3412647      -0.8152232      -0.02947658      0.02812877
                    -0.002110901   -0.0005338779      0.005765305    0.0002165553      -0.02959148       0.0294554        0.3454403      -0.8127654
5.2832                  0.345448      -0.8114983      -0.02980511      0.02972005      0.005879193      0.00025272     -0.001657612    1.495687e-05
                     -0.03107097       0.0273948        0.3386935       -0.815631      -0.02927889      0.03021477      0.005629079     0.001171355
                     0.006548433     0.002013126      -0.02927369      0.03021405        0.3386771      -0.8156173       -0.0295752      0.02833574
                    -0.002175423   -0.0005339474      0.005843181    0.0002467875      -0.02965405      0.02964636        0.3428757      -0.8132359
5.2848                 0.3428951        -0.81203      -0.02986848      0.02991725      0.005959856    0.0002800899     -0.001703049   -8.194937e-06
                     -0.03120265      0.02767331        0.3361029      -0.8160201      -0.02934887      0.03039998      0.005739083     0.001189941
                     0.006687269       0.0019882      -0.02934365      0.03039925        0.3360865      -0.8160057       -0.0296749      0.02854915
                    -0.002240496   -0.0005314201      0.005924232    0.0002744064      -0.02971866      0.02984245        0.3403052      -0.8137007
5.2864                 0.3403334      -0.8125564      -0.02993369      0.03011965      0.006043584    0.0003047376      -0.00175014   -2.937589e-05
                     -0.03133225      0.02795924        0.3335087      -0.8164037      -0.02942114      0.03059101      0.005851528     0.001204683
                     0.006826536     0.001958535      -0.02941594      0.03059025        0.3334926      -0.8163884      -0.02977543      0.02876909
                    -0.002306018   -0.0005262798      0.006008353     0.000299278      -0.02978515      0.03004381         0.337729        -0.81416
5.288                   0.337763      -0.8130774      -0.03000058       0.0303274      0.006130269    0.0003265341     -0.001798799   -4.851927e-05
                     -0.03145954      0.02825251         0.330911      -0.8167816      -0.02949549      0.03078802      0.005966263     0.001215486
                     0.006966062     0.001924124      -0.02949029      0.03078724        0.3308953      -0.8167657      -0.02987659      0.02899564
                    -0.002371884   -0.0005185129      0.006095432    0.0003212732      -0.02985331      0.03025058        0.3351466      -0.8146134
5.2896                 0.3351835      -0.8135927      -0.03006893      0.03054063      0.006219794    0.0003453553     -0.001848939   -6.556159e-05
                     -0.03158426      0.02855311        0.3283097       -0.817154       -0.0295717      0.03099113      0.006083133     0.001222261
                      0.00710567     0.001884968      -0.02956651      0.03099034        0.3282939      -0.8171374       -0.0299781      0.02922888
                    -0.002437993   -0.0005081118      0.006185355    0.0003402678      -0.02992295       0.0304629        0.3325583       -0.815061
5.2912                 0.3325949      -0.8141021      -0.03013857      0.03075946      0.006312042    0.0003610825      -0.00190047    -8.04444e-05
                     -0.03170615      0.02886098        0.3257043      -0.8175209      -0.02964955      0.03120049       0.00620198     0.001224926
                      0.00724519     0.001841075      -0.02964436       0.0311997        0.3256887      -0.8175036      -0.03007975      0.02946888
                    -0.002504239   -0.0004950724      0.006278003    0.0003561428      -0.02999389      0.03068089        0.3299635      -0.8155026
5.2928                 0.3299971      -0.8146054      -0.03020929      0.03098401      0.006406892     0.000373602       -0.0019533   -9.311238e-05
                     -0.03182499      0.02917603        0.3230948      -0.8178823      -0.02972877      0.03141627      0.006322644     0.001223406
                     0.007384446      0.00179246      -0.02972362      0.03141545        0.3230795      -0.8178643      -0.03018129      0.02971572
                     -0.00257052   -0.0004793931       0.00637325    0.0003687849      -0.03006589      0.03090466        0.3273623      -0.8159384
5.2944                 0.3273896      -0.8151026      -0.03028087      0.03121439      0.006504214    0.0003828058     -0.002007334   -0.0001035147
                     -0.03194055      0.02949822        0.3204805      -0.8182382      -0.02980918      0.03163853      0.006444961     0.001217633
                     0.007523271     0.001739143        -0.029804       0.0316377        0.3204659      -0.8182195      -0.03028246      0.02996942
                    -0.002636734   -0.0004610794       0.00647097     0.000378086      -0.03013878      0.03113432        0.3247541      -0.8163682
5.296                  0.3247721      -0.8155932       -0.0303531       0.0314507      0.006603877    0.0003885915     -0.002062479   -0.0001116045
                     -0.03205256      0.02982742        0.3178617      -0.8185886      -0.02989048      0.03186741      0.006568767     0.001207546
                     0.007661493     0.001681153      -0.02988533      0.03186656        0.3178475      -0.8185694      -0.03038304      0.03023002
                    -0.002702778   -0.0004401389      0.006571028    0.0003839438      -0.03021231      0.03136998        0.3221391      -0.8167917
5.2976                 0.3221453      -0.8160771      -0.03042579      0.03169301      0.006705747    0.0003908626     -0.002118635   -0.0001173384
                     -0.03216082      0.03016358        0.3152381      -0.8189335      -0.02997246      0.03210301      0.006693895      0.00119309
                     0.007798946     0.001618523      -0.02996732      0.03210213        0.3152243      -0.8189137      -0.03048277      0.03049757
                     -0.00276855   -0.0004165838       0.00667329    0.0003862621      -0.03028629      0.03161171         0.319517      -0.8172089
5.2992                 0.3195083      -0.8165542       -0.0304987      0.03194143      0.006809685    0.0003895285     -0.002175705    -0.000120678
                     -0.03226507      0.03050659        0.3126095      -0.8192729      -0.03005485       0.0323454      0.006820177     0.001174217
                     0.007935466     0.001551296      -0.03004972      0.03234452         0.312596      -0.8192524      -0.03058138      0.03077208
                     -0.00283395   -0.0003904294      0.006777615    0.0003849505      -0.03036048      0.03185962        0.3168876      -0.8176199
5.3008                 0.3168612      -0.8170242      -0.03057163      0.03219602       0.00691555    0.0003845046     -0.002233589   -0.0001215893
                     -0.03236514      0.03085633        0.3099753      -0.8196067       -0.0301374       0.0325947      0.006947444     0.001150887
                     0.008070888     0.001479516      -0.03013228      0.03259379        0.3099621      -0.8195856      -0.03067867      0.03105357
                    -0.002898878   -0.0003616969      0.006883862    0.0003799246      -0.03043466      0.03211376        0.3142506      -0.8180244
5.3024                 0.3142038      -0.8174868      -0.03064433      0.03245684      0.007023197    0.0003757126     -0.002292186   -0.0001200411
                     -0.03246074       0.0312127        0.3073355      -0.8199348      -0.03021986      0.03285092      0.007075525     0.001123067
                     0.008205053     0.001403238      -0.03021475         0.03285        0.3073228      -0.8199132      -0.03077437      0.03134203
                    -0.002963236   -0.0003304086      0.006991883    0.0003711063      -0.03050863      0.03237419        0.3116062      -0.8184222
5.304                   0.311536      -0.8179418      -0.03071661      0.03272395      0.007132478    0.0003630802     -0.002351394   -0.0001160089
                     -0.03255173      0.03157558        0.3046901      -0.8202572      -0.03030198      0.03311417       0.00720425      0.00109073
                     0.008337806     0.001322521      -0.03029688      0.03311323        0.3046778      -0.8202351      -0.03086823      0.03163746
                    -0.003026927   -0.0002965936      0.007101532    0.0003584239      -0.03058214      0.03264098        0.3089536      -0.8188133
5.3056                 0.3088579      -0.8183889      -0.03078822      0.03299741      0.007243245    0.0003465417     -0.002411111   -0.0001094698
                     -0.03263784      0.03194483        0.3020381       -0.820574      -0.03038348      0.03338448      0.007333448     0.001053856
                     0.008468992      0.00123743      -0.03037838      0.03338352        0.3020266      -0.8205512         -0.03096      0.03193985
                    -0.003089855   -0.0002602828      0.007212657    0.0003418121      -0.03065496      0.03291418        0.3062935      -0.8191975
5.3072                  0.306169       -0.818828      -0.03085891      0.03327725      0.007355345    0.0003260377     -0.002471235   -0.0001004069
                     -0.03271893      0.03232032        0.2993802      -0.8208849      -0.03046411      0.03366188      0.007462947     0.001012434
                     0.008598457     0.001148035      -0.03045901      0.03366091        0.2993692      -0.8208615      -0.03104946      0.03224916
                    -0.003151926   -0.0002215109      0.007325104    0.0003212118      -0.03072685      0.03319382        0.3036247      -0.8195745
5.3088                 0.3034695      -0.8192587       -0.0309285       0.0335635      0.007468627    0.0003015154     -0.002531661    -8.88077e-05
                     -0.03279475      0.03270191        0.2967156      -0.8211898      -0.03054359      0.03394642      0.007592576    0.0009664577
                     0.008726059     0.001054413      -0.03053851      0.03394543        0.2967052      -0.8211659      -0.03113634      0.03256537
                    -0.003213049   -0.0001803163      0.007438723    0.0002965707       -0.0307976      0.03347991        0.3009481      -0.8199444
5.3104                 0.3007592      -0.8196807      -0.03099674      0.03385617      0.007582933    0.0002729281     -0.002592287   -7.466247e-05
                     -0.03286514      0.03308943        0.2940442      -0.8214886      -0.03062169       0.0342381      0.007722167    0.0009159286
                     0.008851651    0.0009566454       -0.0306166      0.03423709        0.2940343      -0.8214642      -0.03122042      0.03288842
                    -0.003273132   -0.0001367426      0.007553353     0.000267843      -0.03086698      0.03377251        0.2982626       -0.820307
5.312                  0.2980378       -0.820094      -0.03106338      0.03415529      0.007698108    0.0002402364     -0.002653009   -5.796707e-05
                     -0.03292993      0.03348276        0.2913661      -0.8217811      -0.03069811      0.03453694      0.007851548    0.0008608553
                     0.008975095    0.0008548194      -0.03069304      0.03453591        0.2913566      -0.8217563      -0.03130145      0.03321827
                    -0.003332087   -9.083426e-05       0.00766884    0.0002349893      -0.03093475      0.03407159        0.2955687      -0.8206618
5.3136                 0.2953056       -0.820498      -0.03112824      0.03446086      0.007813996    0.0002034067     -0.002713724   -3.872258e-05
                     -0.03298892      0.03388172        0.2886804      -0.8220675       -0.0307726      0.03484293      0.007980553     0.000801253
                     0.009096256    0.0007490271      -0.03076755      0.03484187        0.2886717      -0.8220422       -0.0313792      0.03355487
                    -0.003389829   -4.264074e-05      0.007785025    0.0001979771      -0.03100066      0.03437718         0.292866      -0.8210089
5.3152                 0.2925623      -0.8208926      -0.03119104      0.03477286      0.007930437    0.0001624125      -0.00277433   -1.693148e-05
                     -0.03304194      0.03428614        0.2859875      -0.8223473      -0.03084492      0.03515605      0.008109015    0.0007371434
                     0.009215003    0.0006393652      -0.03083986      0.03515498         0.285979      -0.8223217      -0.03145346      0.03389811
                    -0.003446274    7.785931e-06      0.007901751    0.0001567804      -0.03106449      0.03468927         0.290154      -0.8213481
5.3168                 0.2898079      -0.8212776      -0.03125156      0.03509128      0.008047273    0.0001172338     -0.002834725    7.396529e-06
                     -0.03308885      0.03469585        0.2832867      -0.8226205      -0.03091479      0.03547629      0.008236768    0.0006685551
                      0.00933121    0.0005259354      -0.03090975      0.03547519        0.2832789      -0.8225945      -0.03152395      0.03424796
                     -0.00350134    6.039151e-05      0.008018854    0.0001113799      -0.03112602      0.03500783        0.2874334      -0.8216792
5.3184                 0.2870423      -0.8216525      -0.03130961      0.03541612      0.008164348    6.785698e-05     -0.002894807    3.424967e-05
                     -0.03312947      0.03511069         0.280578      -0.8228869      -0.03098195       0.0358036      0.008363648    0.0005955232
                     0.009444753    0.0004088437      -0.03097691      0.03580249        0.2805711      -0.8228605      -0.03159052       0.0346043
                    -0.003554948    0.0001151158      0.008136179    6.176271e-05      -0.03118504      0.03533283        0.2847035      -0.8220018
5.32                   0.2842656      -0.8220171      -0.03136492      0.03574733      0.008281503     1.42752e-05     -0.002954476    6.361143e-05
                     -0.03316367      0.03553046        0.2778615      -0.8231464      -0.03104614      0.03613796      0.008489496    0.0005180892
                      0.00955552    0.0002882006      -0.03104112      0.03613683         0.277855      -0.8231196      -0.03165288      0.03496706
                    -0.003607022    0.0001718986      0.008253566    7.922798e-06      -0.03124126      0.03566426        0.2819641      -0.8223158
5.3216                 0.2814777      -0.8223712      -0.03141729      0.03608486      0.008398579   -4.351194e-05     -0.003013632     9.54604e-05
                     -0.03319131      0.03595498        0.2751364      -0.8233987      -0.03110713      0.03647931      0.008614153    0.0004363012
                     0.009663394    0.0001641203      -0.03110211      0.03647815        0.2751306      -0.8233715      -0.03171084      0.03533612
                    -0.003657489    0.0002306756      0.008370856   -5.013943e-05      -0.03129451      0.03600206        0.2792155       -0.822621
5.3232                 0.2786785      -0.8227145      -0.03146648      0.03642868      0.008515419   -0.0001054984     -0.003072178    0.0001297723
                     -0.03321225      0.03638407        0.2724029      -0.8236437      -0.03116463      0.03682758      0.008737464    0.0003502128
                     0.009768272    3.672104e-05      -0.03115962      0.03682641        0.2723977      -0.8236162       -0.0317642      0.03571137
                    -0.003706277    0.0002913799      0.008487891    -0.000112417      -0.03134451      0.03634619        0.2764573      -0.8229173
5.3248                 0.2758678      -0.8230466      -0.03151229      0.03677872      0.008631867   -0.0001716716     -0.003130016    0.0001665183
                     -0.03322635      0.03681754        0.2696607      -0.8238811      -0.03121841       0.0371827      0.008859275    0.0002598843
                     0.009870052    -9.38752e-05      -0.03121342      0.03718151        0.2696562      -0.8238534      -0.03181275      0.03609271
                     -0.00375332    0.0003539423      0.008604517   -0.0001788967      -0.03139112      0.03669658        0.2736893      -0.8232043
5.3264                 0.2730458      -0.8233673      -0.03155449      0.03713492      0.008747769   -0.0002420127     -0.003187053    0.0002056675
                     -0.03323355      0.03725517        0.2669097      -0.8241107      -0.03126824       0.0375446      0.008979437    0.0001653817
                     0.009968637   -0.0002275432      -0.03126325      0.03754339        0.2669059      -0.8240827      -0.03185628      0.03648001
                    -0.003798553    0.0004182911      0.008720574   -0.0002495586      -0.03143406      0.03705318        0.2709116      -0.8234816
5.328                  0.2702125      -0.8236762      -0.03159288      0.03749722      0.008862972   -0.0003164967     -0.003243193      0.00024718
                     -0.03323369      0.03769678        0.2641495      -0.8243324      -0.03131387      0.03791317      0.009097805    6.677656e-05
                      0.01006394   -0.0003641547      -0.03130889      0.03791194        0.2641463      -0.8243042      -0.03189461      0.03687312
                    -0.003841913    0.0004843533      0.008835911   -0.0003243767      -0.03147312       0.0374159         0.268124      -0.8237494
5.3296                 0.2673682      -0.8239732      -0.03162723      0.03786553      0.008977324   -0.0003950922     -0.003298346    0.0002910185
                     -0.03322666      0.03814217        0.2613799      -0.8245458      -0.03135504      0.03828834      0.009214235   -3.585382e-05
                      0.01015587   -0.0005035783      -0.03135009      0.03828707        0.2613776      -0.8245173      -0.03192756      0.03727192
                    -0.003883343    0.0005520508      0.008950376   -0.0004033188      -0.03150812      0.03778466        0.2653267      -0.8240071
5.3312                 0.2645123      -0.8242577      -0.03165735      0.03823975      0.009090674   -0.0004777617     -0.003352423     0.000337139
                     -0.03321242      0.03859114        0.2586013      -0.8247509      -0.03139154      0.03866998      0.009328593   -0.0001424268
                      0.01024435   -0.0006456799      -0.03138658       0.0386687        0.2585995      -0.8247221      -0.03195491      0.03767627
                    -0.003922788    0.0006213067      0.009063818   -0.0004863465      -0.03153882      0.03815938        0.2625191      -0.8242546
5.3328                 0.2616453      -0.8245298      -0.03168306      0.03861981      0.009202878   -0.0005644622     -0.003405335    0.0003854931
                     -0.03319086      0.03904346        0.2558129      -0.8249471      -0.03142314      0.03905798      0.009440738   -0.0002528547
                      0.01032931   -0.0007903233      -0.03141821      0.03905667        0.2558118      -0.8249182      -0.03197651      0.03808603
                    -0.003960196    0.0006920416      0.009176088   -0.0005734155      -0.03156504      0.03853995        0.2597014      -0.8244915
5.3344                  0.258767      -0.8247889      -0.03170411      0.03900559      0.009313789   -0.0006551442     -0.003456999    0.0004360304
                     -0.03316187      0.03949896        0.2530148      -0.8251343      -0.03144961      0.03945221      0.009550545   -0.0003670444
                      0.01041069   -0.0009373697      -0.03144469       0.0394509        0.2530144      -0.8251052      -0.03199217      0.03850101
                    -0.003995519     0.000764171      0.009287045   -0.0006644756      -0.03158655      0.03892627        0.2568738      -0.8247176
5.336                  0.2558775      -0.8250347      -0.03172034      0.03939699      0.009423266    -0.000749753      -0.00350733    0.0004886988
                     -0.03312544       0.0399574         0.250207      -0.8253122      -0.03147076      0.03985255      0.009657888   -0.0004848985
                      0.01048841    -0.001086678      -0.03146585      0.03985121        0.2502068      -0.8252831      -0.03200176      0.03892107
                    -0.004028711    0.0008376133      0.009396544   -0.0007594709       -0.0316032      0.03931824         0.254036      -0.8249327
5.3376                 0.2529768      -0.8252671      -0.03173155      0.03979389      0.009531169   -0.0008482282     -0.003556251    0.0005434378
                     -0.03308147      0.04041859        0.2473888      -0.8254806      -0.03148634      0.04025886      0.009762646   -0.0006063148
                      0.01056242    -0.001238108      -0.03148144      0.04025749        0.2473898      -0.8254514      -0.03200508      0.03934605
                    -0.004059731    0.0009122841      0.009504445   -0.0008583398      -0.03161476      0.03971573        0.2511877      -0.8251365
5.3392                 0.2500648      -0.8254857      -0.03173757      0.04019618      0.009637363   -0.0009505037     -0.003603681    0.0006001911
                     -0.03302991      0.04088232        0.2445609      -0.8256392      -0.03149619      0.04067099      0.009864701   -0.0007311865
                      0.01063269    -0.001391513      -0.03149129       0.0406696        0.2445625      -0.8256099      -0.03200201      0.03977578
                    -0.004088544    0.0009880946      0.009610613   -0.0009610154      -0.03162108       0.0401186        0.2483294      -0.8253288
5.3408                 0.2471421      -0.8256901      -0.03173821       0.0406037      0.009741717    -0.001056509     -0.003649549    0.0006588923
                     -0.03297074      0.04134838        0.2417226      -0.8257877      -0.03150006      0.04108877      0.009963945   -0.0008594031
                      0.01069915     -0.00154675      -0.03149518      0.04108736        0.2417248      -0.8257583      -0.03199241      0.04021007
                    -0.004115113      0.00106496      0.009714915    -0.001067426      -0.03162196      0.04052675        0.2454606      -0.8255091
5.3424                 0.2442084      -0.8258802       -0.0317333      0.04101634      0.009844102    -0.001166167     -0.003693781    0.0007194768
                     -0.03290393      0.04181654         0.238874      -0.8259258      -0.03149781      0.04151206       0.01006027   -0.0009908495
                      0.01076179    -0.001703674      -0.03149295      0.04151064        0.2388768      -0.8258964      -0.03197614      0.04064875
                    -0.004139408     0.001142791      0.009817224    -0.001177493      -0.03161722      0.04094003        0.2425814      -0.8256773
5.344                  0.2412637      -0.8260556      -0.03172268      0.04143398      0.009944393    -0.001279397      -0.00373631    0.0007818749
                     -0.03282939      0.04228661        0.2360149      -0.8260531      -0.03148923       0.0419407       0.01015358    -0.001125408
                      0.01082055    -0.001862136      -0.03148438      0.04193924        0.2360184      -0.8260238      -0.03195306      0.04109164
                    -0.004161403     0.001221497      0.009917414    -0.001291136      -0.03160672      0.04135829        0.2396919      -0.8258331
5.3456                 0.2383083      -0.8262159      -0.03170618      0.04185643       0.01004247    -0.001396113     -0.003777069    0.0008460167
                     -0.03274718      0.04275838        0.2331452      -0.8261696      -0.03147414      0.04237449       0.01024377    -0.001262956
                      0.01087543     -0.00202199      -0.03146931      0.04237302        0.2331494      -0.8261401      -0.03192307      0.04153855
                    -0.004181074      0.00130099       0.01001536    -0.001408266      -0.03159028      0.04178139        0.2367922      -0.8259761
5.3472                 0.2353422      -0.8263611      -0.03168367      0.04228357       0.01013821    -0.001516226     -0.003815997    0.0009118279
                     -0.03265724      0.04323164         0.230265      -0.8262746      -0.03145238      0.04281328       0.01033077    -0.001403369
                       0.0109264    -0.002183091      -0.03144756      0.04281179          0.23027      -0.8262451      -0.03188603      0.04198929
                    -0.004198404     0.001381177       0.01011096    -0.001528794      -0.03156774      0.04220918        0.2338821      -0.8261062
5.3488                 0.2323653      -0.8264908      -0.03165497      0.04271524       0.01023152    -0.001639639     -0.003853035    0.0009792311
                     -0.03255961      0.04370618        0.2273742       -0.826368      -0.03142378      0.04325687       0.01041448    -0.001546519
                      0.01097346    -0.002345289      -0.03141898      0.04325535        0.2273798      -0.8263385      -0.03184186      0.04244367
                    -0.004213375     0.001461967       0.01020408    -0.001652622      -0.03153898       0.0426415        0.2309614      -0.8262229
5.3504                 0.2293783      -0.8266045      -0.03161996      0.04315127       0.01032227    -0.001766255     -0.003888127     0.001048151
                     -0.03245424      0.04418181        0.2244727      -0.8264493      -0.03138819      0.04370507       0.01049482    -0.001692275
                      0.01101658    -0.002508439       -0.0313834      0.04370353         0.224479      -0.8264199      -0.03179045      0.04290149
                    -0.004225976     0.001543272       0.01029464    -0.001779652      -0.03150383      0.04307818        0.2280308      -0.8263262
5.352                  0.2263811      -0.8267022      -0.03157848      0.04359151       0.01041037    -0.001895971     -0.003921221     0.001118504
                     -0.03234116      0.04465832        0.2215604      -0.8265184      -0.03134549      0.04415769       0.01057173    -0.001840504
                      0.01105578    -0.002672394      -0.03134072      0.04415612        0.2215672      -0.8264892      -0.03173172      0.04336256
                    -0.004236199     0.001624997       0.01038251    -0.001909779      -0.03146218      0.04351906        0.2250897      -0.8264156
5.3536                 0.2233732      -0.8267836      -0.03153045      0.04403578       0.01049571    -0.002028681     -0.003952269     0.001190211
                     -0.03222042      0.04513551        0.2186374      -0.8265747       -0.0312955      0.04461453       0.01064514    -0.001991071
                      0.01109107    -0.002837009      -0.03129075      0.04461294        0.2186448      -0.8265457       -0.0316656      0.04382668
                     -0.00424404     0.001707052       0.01046761    -0.002042896       -0.0314139      0.04396397        0.2221381      -0.8264908
5.3552                 0.2203553      -0.8268482      -0.03147571      0.04448391       0.01057822    -0.002164274     -0.003981226     0.001263187
                     -0.03209201      0.04561319        0.2157035      -0.8266183      -0.03123812      0.04507539       0.01071499    -0.002143838
                      0.01112244     -0.00300214      -0.03123336      0.04507378        0.2157113      -0.8265893      -0.03159198      0.04429366
                    -0.004249499     0.001789345       0.01054984    -0.002178892      -0.03135885      0.04441274        0.2191766      -0.8265515
5.3568                 0.2173277      -0.8268959      -0.03141414      0.04493574        0.0106578    -0.002302638     -0.004008051     0.001337347
                     -0.03195597      0.04609116        0.2127585      -0.8266484       -0.0311732      0.04554006       0.01078123    -0.002298668
                      0.01114993    -0.003167645      -0.03116847      0.04553843        0.2127672      -0.8266195      -0.03151082      0.04476328
                    -0.004252579     0.001871785       0.01062911    -0.002317652      -0.03129691      0.04486519         0.216205      -0.8265975
5.3584                 0.2142903      -0.8269265      -0.03134567      0.04539109       0.01073436    -0.002443656     -0.004032706     0.001412605
                     -0.03181235      0.04656922        0.2098031      -0.8266649      -0.03110065      0.04600834        0.0108438    -0.002455418
                      0.01117355    -0.003333382      -0.03109594      0.04600669        0.2098123      -0.8266362      -0.03142209      0.04523534
                    -0.004253285     0.001954283       0.01070535    -0.002459061      -0.03122802      0.04532113        0.2132231      -0.8266286
5.36                   0.2112432      -0.8269395      -0.03127017      0.04584977       0.01080783     -0.00258721     -0.004055159     0.001488871
                      -0.0316612       0.0470472        0.2068366      -0.8266674      -0.03102038      0.04648002       0.01090268    -0.002613948
                      0.01119334     -0.00349921      -0.03101568      0.04647834        0.2068464      -0.8266389      -0.03132566      0.04570964
                     -0.00425163     0.002036747       0.01077847    -0.002602997      -0.03115203      0.04578039        0.2102314      -0.8266443
5.3616                 0.2081866      -0.8269349      -0.03118757      0.04631159       0.01087814    -0.002733179     -0.004075378     0.001566059
                     -0.03150257      0.04752491        0.2038595      -0.8266555      -0.03093228      0.04695487       0.01095781    -0.002774116
                      0.01120933    -0.003664994      -0.03092759      0.04695317        0.2038698      -0.8266273      -0.03122158        0.046186
                    -0.004247626     0.002119089       0.01084841    -0.002749339      -0.03106889      0.04624277        0.2072295      -0.8266444
5.3632                 0.2051207      -0.8269124      -0.03109777       0.0467764       0.01094523    -0.002881439     -0.004093338     0.001644078
                     -0.03133653      0.04800218        0.2008713       -0.826629      -0.03083623      0.04743269       0.01100918    -0.002935779
                      0.01122156    -0.003830597      -0.03083156      0.04743097        0.2008822      -0.8266009      -0.03110978      0.04666419
                    -0.004241292     0.002201221        0.0109151    -0.002897963       -0.0309785      0.04670812        0.2042178      -0.8266287
5.3648                 0.2020457      -0.8268716      -0.03100069      0.04724397       0.01100903    -0.003031865     -0.004109018     0.001722837
                     -0.03116315      0.04847881        0.1978726      -0.8265874      -0.03073221      0.04791326       0.01105676    -0.003098794
                      0.01123008    -0.003995889      -0.03072756      0.04791152         0.197884      -0.8265596       -0.0309902      0.04714403
                    -0.004232651     0.002283054       0.01097849    -0.003048741      -0.03088079       0.0471762        0.2011966      -0.8265968
5.3664                 0.1989619      -0.8268124      -0.03089628      0.04771414       0.01106949    -0.003184329     -0.004122399     0.001802247
                     -0.03098248      0.04895466        0.1948633      -0.8265305      -0.03062012      0.04839634       0.01110054    -0.003263018
                      0.01123494    -0.004160737      -0.03061548      0.04839458        0.1948751      -0.8265029      -0.03086289       0.0476253
                    -0.004221725     0.002364506       0.01103851    -0.003201545      -0.03077567      0.04764686        0.1981658      -0.8265484
5.368                  0.1958694      -0.8267346      -0.03078446      0.04818672       0.01112656    -0.003338703     -0.004133465     0.001882215
                     -0.03079461      0.04942954        0.1918433      -0.8264578      -0.03049988      0.04888174        0.0111405    -0.003428306
                       0.0112362    -0.004325015      -0.03049529      0.04887996        0.1918556      -0.8264304      -0.03072779      0.04810781
                    -0.004208545     0.002445489       0.01109511    -0.003356247      -0.03066308       0.0481199        0.1951251      -0.8264833
5.3696                 0.1927682      -0.8266377      -0.03066521       0.0486615        0.0111802    -0.003494858     -0.004142208      0.00196265
                     -0.03059965      0.04990331        0.1888125       -0.826369      -0.03037149      0.04936922       0.01117664    -0.003594518
                      0.01123393      -0.0044886       -0.0303669      0.04936742        0.1888255      -0.8263419      -0.03058491      0.04859137
                    -0.004193139     0.002525921       0.01114827    -0.003512715      -0.03054301      0.04859511         0.192075      -0.8264013
5.3712                 0.1896588      -0.8265217      -0.03053843      0.04913833       0.01123038    -0.003652661     -0.004148622     0.002043459
                     -0.03039766      0.05037582        0.1857714      -0.8262639      -0.03023488      0.04985858       0.01120897    -0.003761512
                      0.01122818    -0.004651372      -0.03023032      0.04985675         0.185785      -0.8262371      -0.03043427      0.04907577
                    -0.004175546     0.002605719       0.01119794    -0.003670816      -0.03041537      0.04907232        0.1890159       -0.826302
5.3728                 0.1865411      -0.8263866      -0.03040409      0.04961699       0.01127705    -0.003811982     -0.004152703     0.002124552
                     -0.03018873      0.05084689        0.1827201       -0.826142      -0.03008999      0.05034958       0.01123749    -0.003929147
                      0.01121903    -0.004813212      -0.03008546      0.05034773        0.1827341      -0.8261154      -0.03027585      0.04956083
                    -0.004155801     0.002684806       0.01124409     -0.00383042      -0.03028016      0.04955134        0.1859473       -0.826185
5.3744                 0.1834155      -0.8262317      -0.03026219      0.05009731        0.0113202    -0.003972688     -0.004154451     0.002205837
                       -0.029973       0.0513164        0.1796587       -0.826003      -0.02993686        0.050842       0.01126222    -0.004097282
                      0.01120656    -0.004974009      -0.02993232      0.05084014         0.179673      -0.8259767      -0.03010973      0.05004636
                    -0.004133948     0.002763102       0.01128669    -0.003991392      -0.03013732      0.05003196        0.1828699      -0.8260504
5.376                  0.1802821       -0.826057      -0.03011271      0.05057908       0.01135981    -0.004134648     -0.004153875     0.002287223
                     -0.02975055      0.05178421        0.1765869      -0.8258465      -0.02977541      0.05133564       0.01128317    -0.004265782
                      0.01119085    -0.005133652      -0.02977091      0.05133375        0.1766017      -0.8258206      -0.02993588      0.05053216
                     -0.00411003     0.002840532       0.01132574      -0.0041536      -0.02998681      0.05051401        0.1797836      -0.8258975
5.3776                 0.1771414      -0.8258625      -0.02995559      0.05106213       0.01139586    -0.004297729     -0.004150982     0.002368621
                     -0.02952147      0.05225019        0.1735052      -0.8256723      -0.02960567      0.05183026       0.01130038    -0.004434509
                      0.01117199    -0.005292038      -0.02960118      0.05182835        0.1735201      -0.8256467      -0.02975434      0.05101806
                    -0.004084096     0.002917022       0.01136121    -0.004316912      -0.02982866       0.0509973        0.1766886      -0.8257264
5.3792                 0.1739933      -0.8256476      -0.02979084      0.05154627       0.01142835    -0.004461798     -0.004145785      0.00244994
                     -0.02928593      0.05271422        0.1704136        -0.82548      -0.02942762      0.05232566       0.01131388     -0.00460333
                      0.01115007    -0.005449064      -0.02942316      0.05232374        0.1704291      -0.8254546      -0.02956518      0.05150387
                    -0.004056196     0.002992501        0.0113931    -0.004481194      -0.02966284      0.05148162         0.173585      -0.8255365
5.3808                 0.1708382      -0.8254125      -0.02961845      0.05203132       0.01145727    -0.004626727     -0.004138299     0.002531093
                       -0.029044      0.05317616        0.1673123      -0.8252691      -0.02924128      0.05282164        0.0113237    -0.004772113
                      0.01112518    -0.005604635      -0.02923684      0.05281968        0.1673281      -0.8252441       -0.0293684      0.05198941
                    -0.004026379     0.003066898       0.01142141    -0.004646315      -0.02948934      0.05196681        0.1704729      -0.8253281
5.3824                 0.1676761      -0.8251568      -0.02943844       0.0525171       0.01148264    -0.004792384     -0.004128547     0.002611991
                     -0.02879581      0.05363592        0.1642014      -0.8250396      -0.02904667      0.05331796       0.01132989    -0.004940728
                      0.01109741     -0.00575866      -0.02904224      0.05331599        0.1642175      -0.8250149       -0.0291641      0.05247453
                    -0.003994708     0.003140148       0.01144615    -0.004812143      -0.02930818      0.05245267        0.1673529      -0.8251003
5.384                  0.1645078      -0.8248803       -0.0292508      0.05300342       0.01150445     -0.00495864     -0.004116552     0.002692548
                     -0.02854148      0.05409338        0.1610815       -0.824791      -0.02884379      0.05381442       0.01133249     -0.00510905
                      0.01106688    -0.005911051      -0.02883942      0.05381243        0.1610977      -0.8247667      -0.02895233      0.05295902
                    -0.003961235     0.003212187       0.01146732     -0.00497855      -0.02911935      0.05293903        0.1642246      -0.8248534
5.3856                 0.1613326      -0.8245831      -0.02905557      0.05349009       0.01152274    -0.005125367     -0.004102344     0.002772679
                     -0.02828117      0.05454846        0.1579521       -0.824523      -0.02863271      0.05431082       0.01133157    -0.005276954
                      0.01103368    -0.006061725      -0.02862835      0.05430881        0.1579689       -0.824499      -0.02873317      0.05344276
                    -0.003926027     0.003282951       0.01148494    -0.005145406       -0.0289229      0.05342571        0.1610887      -0.8245867
5.3872                 0.1581517      -0.8242646      -0.02885275      0.05397698       0.01153751    -0.005292439     -0.004085949     0.002852302
                     -0.02801498      0.05500104        0.1548135      -0.8242352      -0.02841346      0.05480697       0.01132718    -0.005444321
                      0.01099792    -0.006210608       -0.0284091      0.05480494        0.1548308      -0.8242115      -0.02850665      0.05392556
                    -0.003889144     0.003352384       0.01149904    -0.005312584      -0.02871883      0.05391253        0.1579448      -0.8243003
5.3888                 0.1549647       -0.823925      -0.02864239      0.05446387       0.01154879    -0.005459732     -0.004067405     0.002931335
                     -0.02774306      0.05545107        0.1516664      -0.8239274      -0.02818606      0.05530265       0.01131938    -0.005611036
                      0.01095973    -0.006357627      -0.02818175      0.05530061        0.1516838       -0.823904      -0.02827285      0.05440729
                    -0.003850653     0.003420427       0.01150964    -0.005479962       -0.0285072      0.05439931        0.1547938      -0.8239937
5.3904                 0.1517723       -0.823564      -0.02842448      0.05495062       0.01155662    -0.005627124     -0.004046752     0.003009695
                     -0.02746551      0.05589844        0.1485108      -0.8235993      -0.02795058      0.05579769       0.01130825    -0.005776982
                       0.0109192    -0.006502715       -0.0279463      0.05579562        0.1485282      -0.8235762      -0.02803188      0.05488778
                     -0.00381062     0.003487031       0.01151678    -0.005647415      -0.02828801      0.05488589        0.1516355      -0.8236669
5.392                  0.1485741      -0.8231815      -0.02819914      0.05543706       0.01156104    -0.005794495     -0.004024026     0.003087308
                     -0.02718251      0.05634309        0.1453465      -0.8232505       -0.0277071      0.05629189       0.01129386    -0.005942053
                      0.01087645    -0.006645811      -0.02770285       0.0562898        0.1453644      -0.8232278      -0.02778381      0.05536689
                    -0.003769118     0.003552144        0.0115205    -0.005814823      -0.02806132       0.0553721        0.1484699      -0.8233197
5.3936                 0.1453711      -0.8227773      -0.02796635      0.05592303       0.01156209    -0.005961727     -0.003999276     0.003164097
                     -0.02689416      0.05678499        0.1421743      -0.8228808      -0.02745569      0.05678506       0.01127629    -0.006106143
                      0.01083161    -0.006786861      -0.02745143      0.05678296        0.1421924      -0.8228585      -0.02752874      0.05584449
                    -0.003726217     0.003615717       0.01152083    -0.005982068      -0.02782719      0.05585779        0.1452977      -0.8229517
5.3952                 0.1421629      -0.8223514      -0.02772619      0.05640836       0.01155981    -0.006128708     -0.003972549     0.003239987
                     -0.02660065      0.05722404         0.138994      -0.8224899      -0.02719638      0.05727703       0.01125561     -0.00626915
                      0.01078479    -0.006925813      -0.02719215      0.05727492        0.1390124      -0.8224679      -0.02726676      0.05632045
                    -0.003681991     0.003677708       0.01151783    -0.006149037      -0.02758568      0.05634279         0.142119      -0.8225628
5.3968                 0.1389503      -0.8219035      -0.02747871      0.05689292       0.01155426    -0.006295323     -0.003943895     0.003314909
                     -0.02630204       0.0576602        0.1358061      -0.8220776      -0.02692929      0.05776763       0.01123193    -0.006430981
                      0.01073613    -0.007062625      -0.02692511       0.0577655        0.1358248      -0.8220558      -0.02699797      0.05679463
                    -0.003636513     0.003738079       0.01151156    -0.006315616      -0.02733683      0.05682695        0.1389337      -0.8221528
5.3984                 0.1357334      -0.8214337        -0.027224      0.05737654        0.0115455    -0.006461466     -0.003913367     0.003388793
                     -0.02599855      0.05809345        0.1326108      -0.8216435      -0.02665449      0.05825668       0.01120533     -0.00659154
                      0.01068574    -0.007197258      -0.02665034      0.05825453        0.1326296      -0.8216221      -0.02672248      0.05726692
                    -0.003589863      0.00379679       0.01150206    -0.006481698      -0.02708072      0.05731012        0.1357423      -0.8217214
5.4                    0.1325122      -0.8209416      -0.02696208       0.0578591       0.01153359    -0.006627033     -0.003881024     0.003461573
                     -0.02569026      0.05852374        0.1294082      -0.8211874      -0.02637209      0.05874403       0.01117589    -0.006750743
                      0.01063374    -0.007329678      -0.02636798      0.05874186        0.1294271      -0.8211663      -0.02644039      0.05773721
                    -0.003542121     0.003853807       0.01148942    -0.006647178      -0.02681741      0.05779216        0.1325451      -0.8212686
5.4016                 0.1292869      -0.8204274      -0.02669308      0.05834045       0.01151859    -0.006791922     -0.003846922     0.003533184
                     -0.02537734      0.05895105         0.126199      -0.8207089       -0.0260822      0.05922952       0.01114374    -0.006908506
                      0.01058027    -0.007459861      -0.02607809      0.05922733         0.126218      -0.8206881       -0.0261518      0.05820538
                    -0.003493361     0.003909101       0.01147368    -0.006811955      -0.02654701      0.05827294        0.1293422      -0.8207941
5.4032                 0.1260581      -0.8198907      -0.02641702      0.05882045       0.01150058    -0.006956035     -0.003811126     0.003603568
                     -0.02505993      0.05937535        0.1229829       -0.820208      -0.02578489      0.05971299       0.01110895    -0.007064754
                      0.01052545    -0.007587784      -0.02578081      0.05971079        0.1230019      -0.8201875      -0.02585684      0.05867134
                    -0.003443669     0.003962643       0.01145493    -0.006975933      -0.02626954      0.05875231        0.1261336      -0.8202977
5.4048                 0.1228259      -0.8193316      -0.02613401      0.05929898       0.01147963    -0.007119281     -0.003773697     0.003672666
                     -0.02473815      0.05979665        0.1197606      -0.8196844      -0.02548027      0.06019431       0.01107165    -0.007219413
                      0.01046942    -0.007713433      -0.02547623       0.0601921        0.1197797      -0.8196641      -0.02555563        0.059135
                    -0.003393121     0.004014413       0.01143324    -0.007139015      -0.02598512      0.05923015        0.1229202      -0.8197792
5.4064                 0.1195905        -0.81875      -0.02584415      0.05977593       0.01145583    -0.007281569     -0.003734705     0.003740422
                     -0.02441213      0.06021492        0.1165322      -0.8191377      -0.02516846      0.06067334       0.01103193    -0.007372419
                      0.01041229      -0.0078368      -0.02516446      0.06067111        0.1165514      -0.8191178      -0.02524826      0.05959625
                    -0.003341804     0.004064388       0.01140869    -0.007301114      -0.02569385      0.05970634        0.1197014      -0.8192385
5.408                  0.1163521      -0.8181458       -0.0255475      0.06025116       0.01142925    -0.007442816     -0.003694215     0.003806788
                     -0.02408204      0.06063018        0.1132981      -0.8185678       -0.0248496      0.06114996       0.01098991    -0.007523709
                      0.01035421    -0.007957881      -0.02484562      0.06114772        0.1133173      -0.8185481      -0.02493487      0.06005504
                    -0.003289801     0.004112554       0.01138136    -0.007462148      -0.02539579      0.06018076        0.1164781      -0.8186756
5.4096                 0.1131113      -0.8175188      -0.02524417      0.06072458       0.01139998    -0.007602941     -0.003652302     0.003871712
                     -0.02374797      0.06104244        0.1100581      -0.8179744       -0.0245238      0.06162402        0.0109457     -0.00767323
                      0.01029528    -0.008076682      -0.02451984      0.06162176        0.1100777       -0.817955      -0.02461557      0.06051128
                    -0.003237193     0.004158896       0.01135135    -0.007622034      -0.02509106      0.06065331        0.1132502        -0.81809
5.4112                  0.109868      -0.8168691      -0.02493425      0.06119608       0.01136811    -0.007761869     -0.003609035     0.003935152
                     -0.02341008      0.06145171        0.1068134      -0.8173574      -0.02419116      0.06209543       0.01089941    -0.007820929
                      0.01023566    -0.008193209      -0.02418724      0.06209316        0.1068328      -0.8173382       -0.0242905      0.06096492
                    -0.003184066     0.004203408       0.01131875    -0.007780698      -0.02477974      0.06112388        0.1100184      -0.8174818
5.4128                 0.1066222      -0.8161966      -0.02461784      0.06166555       0.01133374    -0.007919531      -0.00356449     0.003997064
                     -0.02306849      0.06185801        0.1035634      -0.8167166      -0.02385185      0.06256407       0.01085116    -0.007966765
                      0.01017546    -0.008307478      -0.02384794      0.06256179         0.103583      -0.8166975      -0.02395977      0.06141586
                    -0.003130502     0.004246083       0.01128364    -0.007938069      -0.02446193      0.06159237        0.1067823      -0.8168508
5.4144                 0.1033748      -0.8155012      -0.02429501      0.06213292       0.01129695    -0.008075858     -0.003518742      0.00405741
                     -0.02272333      0.06226138        0.1003091      -0.8160517      -0.02350594      0.06302984       0.01080108      -0.0081107
                      0.01011481    -0.008419514      -0.02350208      0.06302756        0.1003286      -0.8160329      -0.02362349       0.0618641
                    -0.003076589     0.004286918       0.01124613    -0.008094083      -0.02413776      0.06205869        0.1035425      -0.8161969
5.416                  0.1001254      -0.8147829      -0.02396592      0.06259809       0.01125786    -0.008230796     -0.003471872     0.004116157
                     -0.02237472      0.06266186       0.09705026      -0.8153626       -0.0231536      0.06349266       0.01074927    -0.008252702
                      0.01005384    -0.008529339      -0.02314978      0.06349035       0.09706981       -0.815344       -0.0232818      0.06230956
                    -0.003022408     0.004325917       0.01120631    -0.008248679      -0.02380731      0.06252275        0.1002995      -0.8155198
5.4176                0.09687468      -0.8140416      -0.02363064      0.06306098       0.01121655    -0.008384284     -0.003423956     0.004173272
                     -0.02202274      0.06305947       0.09378766      -0.8146491      -0.02279497      0.06395242       0.01069586    -0.008392743
                     0.009992671     -0.00863699      -0.02279117      0.06395011       0.09380725      -0.8146307      -0.02293484      0.06275221
                    -0.002968045     0.004363085       0.01116429    -0.008401804      -0.02347068      0.06298448       0.09705326      -0.8148196
5.4192                 0.0936229      -0.8132772      -0.02328926      0.06352153       0.01117314    -0.008536274     -0.003375074     0.004228729
                     -0.02166758      0.06345429       0.09052131      -0.8139111       -0.0224302      0.06440907       0.01064097    -0.008530804
                     0.009931424    -0.008742503      -0.02242642      0.06440675       0.09054094      -0.8138928      -0.02258272      0.06319202
                    -0.002913584      0.00439843       0.01112017    -0.008553407      -0.02312802      0.06344381       0.09380382      -0.8140961
5.4208                0.09036987      -0.8124897      -0.02294192      0.06397964       0.01112772    -0.008686724     -0.003325309     0.004282503
                     -0.02130928      0.06384636        0.0872518      -0.8131483      -0.02205936      0.06486252       0.01058473    -0.008666872
                     0.009870221    -0.008845926      -0.02205563      0.06486019       0.08727149      -0.8131303      -0.02222555      0.06362898
                    -0.002859108     0.004431966       0.01107405    -0.008703443      -0.02277937      0.06390066       0.09055179      -0.8133491
5.4224                0.08711617      -0.8116792      -0.02258869      0.06443529       0.01108041    -0.008835592     -0.003274742     0.004334576
                     -0.02094798      0.06423575       0.08397898      -0.8123606      -0.02168266      0.06531271       0.01052725    -0.008800939
                     0.009809182    -0.008947308      -0.02167895      0.06531037        0.0839987      -0.8123427      -0.02186345      0.06406305
                    -0.002804697      0.00446371       0.01102605    -0.008851879      -0.02242488      0.06435499       0.08729737      -0.8125787
5.424                 0.08386181      -0.8108456      -0.02222972      0.06488842        0.0110313    -0.008982848     -0.003223456     0.004384929
                     -0.02058377      0.06462251       0.08070385      -0.8115481      -0.02130021      0.06575959       0.01046865    -0.008933001
                     0.009748423    -0.009046706      -0.02129652      0.06575724       0.08072341      -0.8115303      -0.02149656      0.06449424
                    -0.002750437      0.00449368       0.01097628    -0.008998678      -0.02206468      0.06480672       0.08404072      -0.8117844
5.4256                0.08060738      -0.8099886      -0.02186509      0.06533895       0.01098053    -0.009128463     -0.003171535     0.004433551
                     -0.02021677      0.06500675       0.07742622      -0.8107103      -0.02091216      0.06620312       0.01040907    -0.009063066
                     0.009688058    -0.009144182      -0.02090848      0.06620076       0.07744563      -0.8106925      -0.02112498      0.06492253
                    -0.002696405     0.004521903       0.01092483    -0.009143814      -0.02169883      0.06525584        0.0807821      -0.8109667
5.4272                 0.0773527      -0.8091086      -0.02149491      0.06578688       0.01092818    -0.009272415      -0.00311906     0.004480433
                     -0.01984705      0.06538851       0.07414634      -0.8098472      -0.02051859      0.06664325       0.01034862    -0.009191141
                     0.009628199    -0.009239802      -0.02051498      0.06664088       0.07416616      -0.8098297      -0.02074883      0.06534793
                    -0.002642686     0.004548402       0.01087184    -0.009287265      -0.02132748      0.06570229        0.0775219      -0.8101251
5.4288                0.07409815      -0.8082054       -0.0211193      0.06623215       0.01087437    -0.009414691     -0.003066121      0.00452557
                     -0.01947469      0.06576791        0.0708652      -0.8089589      -0.02011972      0.06707996       0.01028742    -0.009317246
                     0.009568953    -0.009333638      -0.02011613      0.06707759       0.07088467      -0.8089412      -0.02036824      0.06577045
                    -0.002589354     0.004573211       0.01081739    -0.009429018      -0.02095072      0.06614604       0.07426011      -0.8092595
5.4304                0.07084396      -0.8072789      -0.02073834      0.06667475       0.01081922    -0.009555276     -0.003012793     0.004568961
                     -0.01909978      0.06614499       0.06758227       -0.808045      -0.01971566      0.06751322        0.0102256    -0.009441401
                     0.009510423    -0.009425771       -0.0197121      0.06751084       0.06760177      -0.8080276       -0.0199833      0.06619012
                    -0.002536491     0.004596361       0.01076162    -0.009569063      -0.02056867      0.06658707       0.07099719      -0.8083701
5.432                 0.06759013      -0.8063293      -0.02035218      0.06711464       0.01076283    -0.009694169     -0.002959169     0.004610608
                     -0.01872239      0.06651989       0.06429836      -0.8071056      -0.01930653      0.06794301       0.01016326    -0.009563636
                     0.009452716    -0.009516284      -0.01930299      0.06794063       0.06431789      -0.8070882      -0.01959413      0.06660695
                    -0.002484165     0.004617894       0.01070463    -0.009707395      -0.02018142      0.06702535       0.06773349      -0.8074565
5.4336                0.06433744      -0.8053563      -0.01996087      0.06755182       0.01070532     -0.00983137     -0.002905329     0.004650519
                      -0.0183426      0.06689271       0.06101389      -0.8061405      -0.01889246      0.06836933       0.01010054    -0.009683985
                     0.009395923    -0.009605261      -0.01888897      0.06836694       0.06103345      -0.8061232      -0.01920083      0.06702096
                     -0.00243246     0.004637845       0.01064653    -0.009844019      -0.01978909      0.06746087       0.06446905      -0.8065189
5.4352                0.06108552        -0.80436      -0.01956455      0.06798628        0.0106468    -0.009966891     -0.002851353     0.004688703
                     -0.01796047      0.06726352       0.05772891      -0.8051499      -0.01847359      0.06879217       0.01003753     -0.00980249
                     0.009340143    -0.009692799      -0.01847014       0.0687898       0.05774849      -0.8051323       -0.0188035      0.06743222
                    -0.002381442     0.004656262       0.01058744    -0.009978941      -0.01939178      0.06789364       0.06120412      -0.8055571
5.4368                0.05783478      -0.8033406      -0.01916329      0.06841802       0.01058738     -0.01010074     -0.002797328     0.004725176
                     -0.01757604      0.06763245       0.05444385      -0.8041333      -0.01805008      0.06921156      0.009974363    -0.009919197
                     0.009285463    -0.009778993      -0.01804665      0.06920917       0.05446325      -0.8041158      -0.01840223      0.06784073
                    -0.002331183     0.004673191       0.01052746     -0.01011218      -0.01898957      0.06832363       0.05793908      -0.8045712
5.4384                0.05458521       -0.802298       -0.0187572      0.06884704       0.01052716     -0.01023294     -0.002743337     0.004759955
                     -0.01718939       0.0679996       0.05115914      -0.8030909      -0.01762202      0.06962748      0.009911142     -0.01003416
                      0.00923197    -0.009863946      -0.01761861      0.06962509       0.05117856      -0.8030733      -0.01799711      0.06824655
                    -0.002281753     0.004688682       0.01046672     -0.01024374      -0.01858261      0.06875087       0.05467397      -0.8035609
5.44                  0.05133763      -0.8012321      -0.01834639      0.06927334       0.01046626     -0.01036351     -0.002689456     0.004793061
                     -0.01680052       0.0683651       0.04787481      -0.8020226      -0.01718951      0.07003999      0.009847976     -0.01014743
                      0.00917974    -0.009947764      -0.01718616      0.07003759       0.04789427      -0.8020049      -0.01758826      0.06864975
                    -0.002233217     0.004702789        0.0104053     -0.01037367      -0.01817095      0.06917537       0.05140937      -0.8025263
5.4416                0.04809126       -0.800143      -0.01793094      0.06969694       0.01040479     -0.01049249     -0.002635769     0.004824521
                     -0.01640948      0.06872905       0.04459172      -0.8009283      -0.01675274       0.0704491       0.00978497     -0.01025908
                     0.009128856     -0.01003056       -0.0167494       0.0704467         0.044611      -0.8009106      -0.01717573      0.06905038
                     -0.00218564     0.004715567       0.01034333     -0.01050199      -0.01775468      0.06959714       0.04814515      -0.8014675
5.4432                0.04484709      -0.7990306      -0.01751092      0.07011788       0.01034283     -0.01061991     -0.002582356     0.004854364
                     -0.01601632      0.06909157        0.0413095       -0.799808      -0.01631177      0.07085484      0.009722225     -0.01036917
                     0.009079385     -0.01011244      -0.01630845      0.07085242         0.041329      -0.7997903      -0.01675959      0.06944849
                    -0.002139082     0.004727077       0.01028091     -0.01062873      -0.01733392      0.07001621       0.04488192      -0.8003842
5.4448                0.04160494      -0.7978951      -0.01708644      0.07053617       0.01028051     -0.01074581     -0.002529289     0.004882622
                     -0.01562103       0.0694528        0.0380288      -0.7986618       -0.0158667      0.07125724      0.009659844     -0.01047778
                     0.009031392     -0.01019354      -0.01586345      0.07125484       0.03804851       -0.798644      -0.01633995      0.06984416
                    -0.002093604      0.00473738       0.01021814     -0.01075395      -0.01690873       0.0704326        0.0416195      -0.7992764
5.4464                0.03836502      -0.7967362      -0.01665758      0.07095184       0.01021793     -0.01087024     -0.002476649     0.004909331
                     -0.01522364      0.06981286       0.03475022      -0.7974895       -0.0154177      0.07165638      0.009597915     -0.01058499
                     0.008984942     -0.01027397      -0.01541446      0.07165398       0.03476958      -0.7974716      -0.01591686      0.07023747
                    -0.002049264      0.00474654       0.01015512     -0.01087768      -0.01647922      0.07084636       0.03835851      -0.7981442
5.448                 0.03512773      -0.7955542      -0.01622438      0.07136494       0.01015517     -0.01099326     -0.002424506     0.004934532
                     -0.01482415      0.07017184       0.03147366      -0.7962912      -0.01496483      0.07205231      0.009536536     -0.01069088
                     0.008940088     -0.01035385      -0.01496162      0.07204989       0.03149304      -0.7962731      -0.01549036      0.07062849
                    -0.002006111     0.004754626       0.01009196     -0.01099999      -0.01604543       0.0712575       0.03509879      -0.7969875
5.4496                 0.0318929       -0.794349      -0.01578696      0.07177551       0.01009234     -0.01111491     -0.002372935     0.004958268
                     -0.01442254      0.07052993       0.02819953      -0.7950668       -0.0145082      0.07244507       0.00947579     -0.01079555
                     0.008896878     -0.01043332      -0.01450501      0.07244267       0.02821912      -0.7950485      -0.01506052      0.07101728
                    -0.001964201     0.004761706       0.01002875     -0.01112093      -0.01560747       0.0716661       0.03184114      -0.7958063
5.4512                0.02866074      -0.7931206      -0.01534535      0.07218357       0.01002953     -0.01123528     -0.002322008     0.004980585
                     -0.01401883      0.07088722       0.02492827      -0.7938164      -0.01404787      0.07283475      0.009415762     -0.01089908
                      0.00885536     -0.01051251      -0.01404471      0.07283235        0.0249477       -0.793798       -0.0146274      0.07140396
                    -0.001923581     0.004767852      0.009965578     -0.01124057      -0.01516538      0.07207219       0.02858502      -0.7946006
5.4528                0.02543166       -0.791869      -0.01489963      0.07258923      0.009966826     -0.01135442     -0.002271789     0.005001534
                     -0.01361299      0.07124385       0.02165995        -0.79254      -0.01358396      0.07322142      0.009356531     -0.01100158
                     0.008815572     -0.01059155      -0.01358085      0.07321901        0.0216796      -0.7925213      -0.01419101       0.0717886
                    -0.001884295     0.004773139       0.00990254     -0.01135898      -0.01471922      0.07247584       0.02533125      -0.7933704
5.4544                0.02220568      -0.7905943      -0.01444986      0.07299248      0.009904319      -0.0114724      -0.00222235     0.005021167
                     -0.01320496      0.07159995       0.01839499      -0.7912375      -0.01311653      0.07360513      0.009298169     -0.01110314
                     0.008777544     -0.01067057      -0.01311344      0.07360272       0.01841467      -0.7912186      -0.01375143      0.07217129
                    -0.001846384     0.004777644       0.00983972     -0.01147623      -0.01426907      0.07287709       0.02207986      -0.7921155
5.456                 0.01898263      -0.7892964      -0.01399609      0.07339342      0.009842088     -0.01158932     -0.002173749     0.005039542
                     -0.01279475      0.07195565       0.01513365      -0.7899089      -0.01264567      0.07398599      0.009240746     -0.01120389
                     0.008741303     -0.01074973       -0.0126426      0.07398359       0.01515355      -0.7898898      -0.01330864      0.07255214
                     -0.00180989     0.004781445      0.009777198      -0.0115924      -0.01381497      0.07327601       0.01883089       -0.790836
5.4576                0.01576311      -0.7879754      -0.01353835       0.0737921      0.009780211     -0.01170524     -0.002126049     0.005056718
                     -0.01238229      0.07231108       0.01187618      -0.7885543      -0.01217143      0.07436407      0.009184329     -0.01130391
                     0.008706871     -0.01082916       -0.0121684      0.07436168       0.01189611       -0.788535      -0.01286272      0.07293124
                    -0.001774844     0.004784622      0.009715058     -0.01170758      -0.01335697      0.07367267       0.01558476      -0.7895321
5.4592                0.01254714      -0.7866312      -0.01307669       0.0741886      0.009718766     -0.01182027     -0.002079308     0.005072756
                     -0.01196753      0.07266638      0.008623012      -0.7871739      -0.01169387      0.07473949      0.009128967     -0.01140334
                     0.008674258     -0.01090901      -0.01169087       0.0747371      0.008643159      -0.7871543      -0.01241362      0.07330868
                    -0.001741282     0.004787258      0.009653372     -0.01182185      -0.01289511      0.07406712       0.01234152      -0.7882035
5.4608               0.009334931      -0.7852638      -0.01261116      0.07458299      0.009657819     -0.01193448     -0.002033584     0.005087723
                     -0.01155043      0.07302167      0.005374202      -0.7857674      -0.01121304      0.07511231      0.009074723      -0.0115023
                     0.008643479     -0.01098941      -0.01121009      0.07510992      0.005394573      -0.7857476      -0.01196138      0.07368458
                    -0.001709229     0.004789435      0.009592212     -0.01193532      -0.01242941      0.07445948      0.009101783      -0.7868502
5.4624               0.006126332      -0.7838734      -0.01214174      0.07497533      0.009597437     -0.01204798     -0.001988927     0.005101684
                     -0.01113091      0.07337707      0.002130189      -0.7843351      -0.01072901      0.07548266       0.00902164     -0.01160089
                     0.008614526     -0.01107052      -0.01072607      0.07548028      0.002150599       -0.784315      -0.01150602      0.07405903
                    -0.001678713      0.00479124       0.00953164     -0.01204807       -0.0119599      0.07484978      0.005865213      -0.7854723
5.464                0.002921575      -0.7824599      -0.01166849      0.07536568      0.009537683     -0.01216087     -0.001945389     0.005114712
                     -0.01070887      0.07373272     -0.001108945       -0.782877      -0.01024179      0.07585062      0.008969757     -0.01169926
                     0.008587399     -0.01115248      -0.01023888      0.07584824     -0.001088121      -0.7828565       -0.0110475      0.07443213
                    -0.001649754     0.004792759      0.009471718     -0.01216021      -0.01148662      0.07523812       0.00263207      -0.7840698
5.4656             -0.0002787854      -0.7810232      -0.01119142      0.07575417      0.009478611     -0.01227325     -0.001903014     0.005126878
                     -0.01028426      0.07408875     -0.004342618       -0.781393     -0.009751412      0.07621632      0.008919116     -0.01179752
                     0.008562085     -0.01123544     -0.009748531      0.07621395     -0.004321378      -0.7813722      -0.01058577      0.07480401
                    -0.001622371      0.00479408      0.009412501     -0.01227184      -0.01100957      0.07562457    -0.0005967004      -0.7826428
5.4672              -0.003475444      -0.7795635      -0.01071056      0.07614084      0.009420268     -0.01238523     -0.001861849     0.005138259
                    -0.009856975      0.07444528     -0.007570563      -0.7798833     -0.009257915      0.07657984      0.008869741     -0.01189581
                     0.008538564     -0.01131955     -0.009255046      0.07657748     -0.007549649      -0.7798622      -0.01012088      0.07517475
                    -0.001596575     0.004795291      0.009354043     -0.01238308      -0.01052878      0.07600923     -0.003822147       -0.781191
5.4688              -0.006667805      -0.7780804      -0.01022584      0.07652579      0.009362702     -0.01249693     -0.001821929     0.005148931
                    -0.009426891      0.07480242       -0.0107929      -0.7783478     -0.008761279      0.07694131      0.008821657     -0.01199426
                     0.008516808     -0.01140497     -0.008758456      0.07693896      -0.01077157      -0.7783264     -0.009652745      0.07554448
                     -0.00157238     0.004796484      0.009296383     -0.01249404      -0.01004418      0.07639217     -0.007043285      -0.7797146
5.4704              -0.009855649      -0.7765744     -0.009737314      0.07690909      0.009305957     -0.01260845     -0.001783294     0.005158975
                    -0.008993904      0.07516029      -0.01400939      -0.7767867     -0.008261529      0.07730085      0.008774882       -0.012093
                     0.008496791     -0.01149183     -0.008258735      0.07729849      -0.01398801       -0.776765     -0.009181358      0.07591329
                     -0.00154979     0.004797747      0.009239564     -0.01260483     -0.009555843      0.07677349      -0.01026025      -0.7782136
5.472                -0.01303913      -0.7750453     -0.009244948      0.07729083       0.00925006     -0.01271991     -0.001745978     0.005168469
                    -0.008557934      0.07551902      -0.01721978         -0.7752     -0.007758665      0.07765853      0.008729427     -0.01219219
                     0.008478468     -0.01158029     -0.007755899       0.0776562      -0.01719797       -0.775178     -0.008706653      0.07628129
                    -0.001528807     0.004799174      0.009183623     -0.01271557      -0.00906371      0.07715327      -0.01347242      -0.7766879
5.4736               -0.01621764      -0.7734929      -0.00874873       0.0776711      0.009195044     -0.01283144     -0.001710005       0.0051775
                    -0.008118814      0.07587869      -0.02042345      -0.7735878     -0.007252672      0.07801453      0.008685293     -0.01229194
                     0.008461796      -0.0116705     -0.007249936       0.0780122      -0.02040121      -0.7735654     -0.008228562       0.0766486
                    -0.001509431     0.004800855      0.009128579     -0.01282638     -0.008567779      0.07753159       -0.0166803      -0.7751376
5.4752                -0.0193917      -0.7719173     -0.008248609         0.07805      0.009140927     -0.01294316     -0.001675406     0.005186151
                    -0.007676417      0.07623943       -0.0236209      -0.7719501     -0.006743528      0.07836892      0.008642478      -0.0123924
                     0.008446719     -0.01176261      -0.00674082       0.0783666      -0.02359786      -0.7719274     -0.007747037       0.0770153
                    -0.001491655     0.004802882      0.009074461     -0.01293739     -0.008068001      0.07790855       -0.0198829      -0.7735626
5.4768               -0.02256108      -0.7703186     -0.007744569       0.0784276      0.009087727     -0.01305519     -0.001642202     0.005194508
                    -0.007230617      0.07660134      -0.02681112       -0.770287     -0.006231205      0.07872183      0.008600971     -0.01249372
                     0.008433178     -0.01185675     -0.006228506      0.07871952      -0.02678766       -0.770264     -0.007262002      0.07738151
                    -0.001475473     0.004805349      0.009021281     -0.01304872     -0.007564356      0.07828423      -0.02308073       -0.771963
5.4784               -0.02572555      -0.7686967     -0.007236576      0.07880397      0.009035455     -0.01316766      -0.00161041     0.005202659
                    -0.006781244      0.07696451      -0.02999389      -0.7685987     -0.005715655      0.07907338      0.008560761     -0.01259604
                     0.008421111     -0.01195309     -0.005712983      0.07907109      -0.02997035      -0.7685752     -0.006773386      0.07774733
                    -0.001460869     0.004808347      0.008969054      -0.0131605     -0.007056774      0.07865874      -0.02627352      -0.7703385
5.48                 -0.02888488      -0.7670516     -0.006724546      0.07917922      0.008984116     -0.01328069     -0.001580043     0.005210694
                    -0.006328165      0.07732902      -0.03316969       -0.766885     -0.005196803       0.0794237      0.008521817      -0.0126995
                     0.008410438     -0.01205175     -0.005194196      0.07942141      -0.03314608      -0.7668611     -0.006281082      0.07811286
                    -0.001447827     0.004811969      0.008917773     -0.01327287     -0.006545247      0.07903214      -0.02946104      -0.7686895
5.4816                -0.0320392      -0.7653832     -0.006208455      0.07955343      0.008933702     -0.01339443     -0.001551111     0.005218702
                    -0.005871199      0.07769498      -0.03633789      -0.7651462     -0.004674689      0.07977287      0.008484119     -0.01280424
                     0.008401085      -0.0121529     -0.004672089      0.07977059      -0.03631348      -0.7651219     -0.005785013      0.07847818
                    -0.001436325     0.004816306      0.008867446     -0.01338595     -0.006029694      0.07940453      -0.03264302      -0.7670158
5.4832               -0.03518827      -0.7636915     -0.005688198      0.07992668      0.008884207       -0.013509     -0.001523623     0.005226774
                    -0.005410164      0.07806245      -0.03949863      -0.7633821     -0.004149153      0.08012103      0.008447614      -0.0129104
                     0.008392959     -0.01225665     -0.004146561      0.08011877      -0.03947377      -0.7633575     -0.005285026      0.07884339
                    -0.001426338     0.004821451      0.008818051     -0.01349987     -0.005510009        0.079776      -0.03581924      -0.7653174
5.4848               -0.03833223      -0.7619764     -0.005163722      0.08029904      0.008835612     -0.01362452     -0.001497577        0.005235
                    -0.004944909      0.07843152      -0.04265128      -0.7615929      -0.00362015      0.08046828      0.008412272     -0.01301813
                     0.008385969     -0.01236316     -0.003617583      0.08046603      -0.04262598      -0.7615681      -0.00478109       0.0792086
                    -0.001417837     0.004827495      0.008769579     -0.01361477     -0.004986157      0.08014663      -0.03898978      -0.7635942
5.4864               -0.04147045      -0.7602381     -0.004634969      0.08067062      0.008787898     -0.01374115     -0.001472973     0.005243473
                    -0.004475222      0.07880225      -0.04579632      -0.7597789     -0.003087587      0.08081473      0.008378038     -0.01312757
                     0.008380018     -0.01247256     -0.003085066       0.0808125      -0.04577021      -0.7597536     -0.004273006      0.07957386
                     -0.00141079     0.004834526      0.008722003     -0.01373078     -0.004458063      0.08051649      -0.04215439      -0.7618462
5.488                 -0.0446038      -0.7584762     -0.004101805      0.08104146      0.008741034     -0.01385901     -0.001449803     0.005252286
                    -0.004000927       0.0791747      -0.04893242      -0.7579399     -0.002551411      0.08116052      0.008344849     -0.01323886
                     0.008374993     -0.01258498     -0.002548914      0.08115828      -0.04890623      -0.7579142      -0.00376068      0.07993929
                    -0.001405158     0.004842637      0.008675293     -0.01384805     -0.003925609      0.08088567      -0.04531319      -0.7600735
5.4896                -0.0477313      -0.7566907     -0.003564165      0.08141164       0.00869498     -0.01397822     -0.001428058     0.005261532
                    -0.003521801      0.07954892      -0.05206113       -0.756076     -0.002011481      0.08150571       0.00831264     -0.01335214
                     0.008370784     -0.01270055      -0.00200899      0.08150348      -0.05203341        -0.75605     -0.003243976      0.08030494
                    -0.001400901     0.004851914      0.008629412     -0.01396669     -0.003388693      0.08125424       -0.0484652      -0.7582761
5.4912               -0.05085306      -0.7548818     -0.003021941      0.08178125      0.008649699     -0.01409894     -0.001407723     0.005271301
                    -0.003037656      0.07992497       -0.0551804      -0.7541871     -0.001467695      0.08185042      0.008281341     -0.01346755
                      0.00836727      -0.0128194     -0.001465228      0.08184821      -0.05515223      -0.7541609     -0.002722755      0.08067089
                    -0.001397971     0.004862444      0.008584321     -0.01408685     -0.002847245      0.08162228      -0.05161122      -0.7564537
5.4928               -0.05396919      -0.7530494     -0.002474985      0.08215035      0.008605137     -0.01422128     -0.001388778     0.005281688
                      -0.0025483      0.08030288      -0.05829106      -0.7522736    -0.0009199249      0.08219475      0.008250872     -0.01358523
                     0.008364327     -0.01294164    -0.0009175014      0.08219256       -0.0582628       -0.752247     -0.002196834      0.08103719
                    -0.001396325     0.004874315      0.008539957     -0.01420866     -0.002301096      0.08198983      -0.05475099      -0.7546065
5.4944               -0.05707979       -0.751193     -0.001923241        0.082519      0.008561233     -0.01434539       -0.0013712     0.005292783
                    -0.002053498      0.08068267      -0.06139322      -0.7503355    -0.0003680766      0.08253879      0.008221144      -0.0137053
                     0.008361822      -0.0130674    -0.0003656765      0.08253661      -0.06136378      -0.7503085     -0.001666103      0.08140393
                    -0.001395906     0.004887609      0.008496272     -0.01433225     -0.001750189        0.082357       -0.0578839      -0.7527344
5.496                -0.06018423      -0.7493131     -0.001366531      0.08288725      0.008517928     -0.01447138     -0.001354962     0.005304679
                    -0.001552991      0.08106438      -0.06448626      -0.7483726     0.0001880062      0.08288262      0.008192069     -0.01382791
                     0.008359618     -0.01319679     0.0001903831      0.08288044      -0.06445636      -0.7483453     -0.001130352      0.08177115
                     -0.00139666      0.00490241      0.008453198     -0.01445775     -0.001194327      0.08272383      -0.06101003      -0.7508374
5.4976               -0.06328263      -0.7474093    -0.0008047523      0.08325516      0.008475155      -0.0145994     -0.001340031     0.005317468
                    -0.001046613      0.08144802      -0.06756993      -0.7463852     0.0007484851      0.08322634       0.00816354     -0.01395318
                     0.008357565     -0.01332992     0.0007508393      0.08322418      -0.06753922      -0.7463576    -0.0005894415       0.0821389
                    -0.001398523     0.004918799      0.008410658      -0.0145853    -0.0006334258      0.08309036      -0.06412946      -0.7489154
5.4992               -0.06637542      -0.7454815    -0.0002377193      0.08362278      0.008432823     -0.01472956     -0.001326373     0.005331238
                   -0.0005340749      0.08183359      -0.07064467      -0.7443731      0.001313467      0.08357001      0.008135451     -0.01408124
                      0.00835552      -0.0134669      0.001315819      0.08356787      -0.07061352      -0.7443452    -4.317278e-05      0.08250723
                    -0.001401435     0.004936853      0.008368577     -0.01471503    -6.731846e-05      0.08345665      -0.06724191      -0.7469684
5.5008               -0.06946161      -0.7435297     0.0003346591      0.08399014      0.008390866       -0.014862     -0.001313944     0.005346078
                   -1.520265e-05      0.08222108       -0.0737099      -0.7423366      0.001883161      0.08391371      0.008107684     -0.01421221
                     0.008353326     -0.01360782      0.001885491      0.08391159      -0.07367758      -0.7423084     0.0005086202      0.08287616
                    -0.001405327     0.004956652      0.008326878     -0.01484705     0.0005041461      0.08382276      -0.07034748      -0.7449963
5.5024               -0.07254164      -0.7415538     0.0009125567      0.08435731      0.008349162     -0.01499685     -0.001302705     0.005362079
                    0.0005102999      0.08261049      -0.07676569      -0.7402756      0.002457724      0.08425752      0.008080134     -0.01434621
                      0.00835082     -0.01375278      0.002459993       0.0842554       -0.0767322      -0.7402472      0.001066166      0.08324573
                    -0.001410127     0.004978268      0.008285449     -0.01498149      0.001081103       0.0841887      -0.07344514      -0.7429991
5.504                -0.07561524      -0.7395537      0.001496152      0.08472428      0.008307643     -0.01513421     -0.001292602     0.005379325
                     0.001042655      0.08300179      -0.07981179      -0.7381901      0.003037296      0.08460147      0.008052656     -0.01448335
                     0.008347829     -0.01390187      0.003039583      0.08459936      -0.07977784      -0.7381614      0.001629619      0.08361594
                    -0.001415762     0.005001775      0.008244195     -0.01511848      0.001663731      0.08455453      -0.07653572      -0.7409766
5.5056               -0.07868282      -0.7375292      0.002085587      0.08509112      0.008266192      -0.0152742     -0.001283586       0.0053979
                     0.001582127      0.08339495      -0.08284829      -0.7360802        0.0036221      0.08494563      0.008025126     -0.01462375
                     0.008344196     -0.01405518      0.003624366      0.08494355       -0.0828132      -0.7360514      0.002199196      0.08398682
                    -0.001422153     0.005027241      0.008203018     -0.01525814      0.002252234      0.08492026      -0.07961888       -0.738929
5.5072               -0.08174375      -0.7354802      0.002681046      0.08545781      0.008224693     -0.01541695     -0.001275599      0.00541789
                     0.002128947      0.08378992      -0.08587492      -0.7339459      0.004212325      0.08529005      0.007997393     -0.01476752
                     0.008339727     -0.01421278       0.00421455      0.08528797      -0.08583865      -0.7339169      0.002775119      0.08435836
                     -0.00142922     0.005054734      0.008161804     -0.01540057      0.002846698      0.08528592      -0.08269399       -0.736856
5.5088               -0.08479805      -0.7334066      0.003282722      0.08582437      0.008183038     -0.01556257     -0.001268578     0.005439376
                     0.002683407      0.08418665       -0.0888914      -0.7317873      0.004808163      0.08563475      0.007969327     -0.01491476
                     0.008334266     -0.01437474      0.004810349      0.08563267        -0.088854      -0.7317581      0.003357572      0.08473057
                    -0.001436876     0.005084318      0.008120434     -0.01554589      0.003447394      0.08565149      -0.08576183      -0.7347575
5.5104               -0.08784512      -0.7313085      0.003890765       0.0861908       0.00814109     -0.01571115     -0.001262463     0.005462436
                     0.003245703      0.08458508      -0.09189784      -0.7296043      0.005409793      0.08597975      0.007940768     -0.01506555
                     0.008327598     -0.01454113      0.005411979       0.0859777      -0.09185964      -0.7295749      0.003946825      0.08510343
                    -0.001445035     0.005116054      0.008078774     -0.01569422      0.004054476      0.08601701      -0.08882102      -0.7326337
5.512                -0.09088603      -0.7291853      0.004505393      0.08655711      0.008098731     -0.01586281     -0.001257181     0.005487149
                     0.003816156      0.08498514      -0.09489428      -0.7273969      0.006017454      0.08632509      0.007911555     -0.01522001
                     0.008319544     -0.01471202      0.006019621      0.08632307      -0.09485494      -0.7273675      0.004543051      0.08547692
                    -0.001453608     0.005150002      0.008036695     -0.01584564      0.004668102      0.08638246      -0.09187266      -0.7304843
5.5136               -0.09391975      -0.7270371      0.005126787      0.08692329      0.008055807     -0.01601765     -0.001252662      0.00551359
                     0.004395007      0.08538673      -0.09788013      -0.7251652      0.006631374      0.08667079       0.00788153     -0.01537821
                     0.008309921     -0.01488744      0.006633501      0.08666876      -0.09783965      -0.7251357      0.005146505      0.08585099
                    -0.001462497     0.005186215      0.007994053     -0.01600027      0.005288535      0.08674785      -0.09491646      -0.7283092
5.5152               -0.09694634       -0.724864      0.005755151       0.0872893      0.008012194     -0.01617575     -0.001248829      0.00554183
                     0.004982503      0.08578975       -0.1008558      -0.7229092      0.007251741      0.08701682       0.00785051     -0.01554025
                     0.008298513     -0.01506745      0.007253849      0.08701481       -0.1008145      -0.7228795      0.005757385      0.08622561
                    -0.001471608     0.005224746      0.007950715      -0.0161582      0.005915937      0.08711313      -0.09795136      -0.7261084
5.5168               -0.09996581      -0.7226654      0.006390671      0.08765511      0.007967736     -0.01633721     -0.001245602     0.005571939
                     0.005578933      0.08619413        -0.103821      -0.7206287      0.007878808      0.08736318       0.00781834     -0.01570617
                     0.008285123     -0.01525209      0.007880898       0.0873612       -0.1037786      -0.7205991      0.006375979      0.08660074
                    -0.001480842     0.005265642      0.007906529     -0.01631951       0.00655052      0.08747826       -0.1009781      -0.7238817
5.5184                -0.1029782      -0.7204413      0.007033597       0.0880207       0.00792226     -0.01650212     -0.001242898     0.005603984
                     0.006184548      0.08659972       -0.1067757      -0.7183238      0.008512792      0.08770986      0.007784829     -0.01587608
                     0.008269552     -0.01544139      0.008514864      0.08770789       -0.1067318      -0.7182943      0.007002467      0.08697628
                    -0.001490097      0.00530895      0.007861318      -0.0164843      0.007192493      0.08784323       -0.1039961       -0.721629
5.52                  -0.1059831      -0.7181917      0.007684104      0.08838601      0.007875619     -0.01667055      -0.00124063      0.00563803
                     0.006799642      0.08700639       -0.1097197      -0.7159945      0.009153955      0.08805683      0.007749802     -0.01605001
                     0.008251585     -0.01563537      0.009156009      0.08805488       -0.1096748       -0.715965      0.007637141       0.0873522
                    -0.001499266     0.005354709      0.007814949     -0.01665263      0.007842071        0.088208       -0.1070052      -0.7193503
5.5216                -0.1089803      -0.7159162      0.008342406      0.08875097      0.007827652     -0.01684258     -0.001238708     0.005674137
                      0.00742445        0.087414       -0.1126528      -0.7136409      0.009802518      0.08840405      0.007713055     -0.01622803
                     0.008231012     -0.01583405      0.009804555      0.08840211       -0.1126067      -0.7136114      0.008280192      0.08772839
                    -0.001508248     0.005402958      0.007767227     -0.01682459      0.008499493      0.08857248       -0.1100056      -0.7170454
5.5232                  -0.11197      -0.7136148      0.009008744      0.08911555      0.007778197     -0.01701827     -0.001237037     0.005712362
                      0.00805925       0.0878224       -0.1155749      -0.7112628       0.01045873      0.08875146      0.007674399     -0.01641019
                     0.008207617     -0.01603744       0.01046073      0.08874954       -0.1155281      -0.7112332      0.008931892      0.08810475
                    -0.001516928      0.00545373      0.007717998     -0.01700024      0.009164958      0.08893663       -0.1129971      -0.7147142
5.5248                -0.1149516      -0.7112874      0.009683316      0.08947964      0.007727037     -0.01719769     -0.001235522      0.00575276
                     0.008704301      0.08823144       -0.1184864        -0.70886       0.01112284        0.089099      0.007633649     -0.01659653
                     0.008181189     -0.01624554       0.01112484      0.08909711       -0.1184381      -0.7088307      0.009592521       0.0884812
                    -0.001525198     0.005507054      0.007667085     -0.01717965       0.00983871      0.08930035       -0.1159788      -0.7123566
5.5264                -0.1179253      -0.7089335       0.01036637      0.08984315      0.007674029     -0.01738089     -0.001234063     0.005795382
                     0.009359885      0.08864094       -0.1213873      -0.7064326       0.01179511      0.08944663       0.00759059     -0.01678708
                     0.008151491     -0.01645835       0.01179711      0.08944474       -0.1213373      -0.7064035       0.01026225      0.08885761
                    -0.001532944     0.005562956       0.00761428     -0.01736287       0.01052095      0.08966358        -0.118952      -0.7099723
5.528                 -0.1208909       -0.706553       0.01105813      0.09020602      0.007618981     -0.01756792     -0.001232557     0.005840273
                      0.01002622      0.08905068       -0.1242763      -0.7039806       0.01247582      0.08979421      0.007545019     -0.01698188
                     0.008118331     -0.01667584       0.01247779      0.08979234       -0.1242253      -0.7039518       0.01094141      0.08923385
                     -0.00154005     0.005621458      0.007559428     -0.01754994       0.01121191      0.09002618       -0.1219147      -0.7075615
5.5296                -0.1238482      -0.7041459        0.0117588      0.09056811      0.007561679     -0.01775882     -0.001230899     0.005887477
                      0.01070361       0.0894605       -0.1271545      -0.7015039       0.01316516      0.09014169      0.007496727     -0.01718094
                     0.008081457       -0.016898       0.01316713      0.09013983       -0.1271017      -0.7014753       0.01163018      0.08960978
                    -0.001546404     0.005682577       0.00750231     -0.01774091       0.01191184      0.09038808       -0.1248685      -0.7051237
5.5312                -0.1267972      -0.7017117       0.01246859       0.0909293       0.00750196     -0.01795362     -0.001228979     0.005937033
                      0.01139232      0.08987016       -0.1300208      -0.6990025       0.01386344      0.09048893      0.007445502     -0.01738427
                     0.008040654      -0.0171248       0.01386538      0.09048709        -0.129967      -0.6989741       0.01232884      0.08998523
                    -0.001551882     0.005746325      0.007442742     -0.01793581       0.01262099      0.09074914       -0.1278121       -0.702659
5.5328                -0.1297375      -0.6992503        0.0131878      0.09128948      0.007439601     -0.01815236     -0.001226692     0.005988976
                      0.01209254      0.09027947       -0.1328763       -0.696476       0.01457094      0.09083582      0.007391142     -0.01759187
                       0.0079957      -0.0173562       0.01457286        0.090834       -0.1328215       -0.696448       0.01303763      0.09036008
                    -0.001556367     0.005812712      0.007380535     -0.01813467       0.01333953      0.09110924        -0.130746      -0.7001671
5.5344                -0.1326688      -0.6967618       0.01391664       0.0916485      0.007374418     -0.01835505     -0.001223919     0.006043338
                      0.01280459      0.09068817       -0.1357203      -0.6939245       0.01528786      0.09118223      0.007333406     -0.01780376
                     0.007946378     -0.01759215       0.01528977      0.09118043       -0.1356634      -0.6938969        0.0137568      0.09073412
                    -0.001559742     0.005881742       0.00731546     -0.01833751       0.01406775      0.09146822       -0.1336692      -0.6976479
5.536                 -0.1355912      -0.6942455       0.01465527      0.09200618      0.007306193     -0.01856171     -0.001220546     0.006100144
                      0.01352869      0.09109601       -0.1385523      -0.6913481       0.01601453      0.09152802      0.007272095     -0.01801989
                     0.007892448     -0.01783259        0.0160164      0.09152623       -0.1384945      -0.6913209       0.01448662      0.09110718
                    -0.001561879     0.005953413      0.007247332     -0.01854433       0.01480585      0.09182595       -0.1365823      -0.6951012
5.5376                -0.1385041      -0.6917016         0.015404      0.09236241      0.007234715     -0.01877233     -0.001216459     0.006159417
                      0.01426506      0.09150274       -0.1413729      -0.6887464       0.01675116      0.09187301      0.007206968     -0.01824027
                     0.007833688     -0.01807745       0.01675302      0.09187125       -0.1413133      -0.6887197       0.01522726      0.09147906
                    -0.001562659     0.006027722      0.007175934     -0.01875515       0.01555407      0.09218224       -0.1394846      -0.6925269
5.5392                -0.1414076      -0.6891295       0.01616304      0.09271698      0.007159782     -0.01898692     -0.001211537     0.006221174
                      0.01501397       0.0919081       -0.1441811      -0.6861194       0.01749805      0.09221707      0.007137811     -0.01846486
                     0.007769868     -0.01832668       0.01749989      0.09221531       -0.1441207      -0.6860933       0.01597905      0.09184954
                    -0.001561957     0.006104657      0.007101049     -0.01896996       0.01631266      0.09253694       -0.1423763      -0.6899247
5.5408                -0.1443016      -0.6865293       0.01693257      0.09306971      0.007081182     -0.01920546     -0.001205661     0.006285429
                      0.01577561       0.0923118       -0.1469778       -0.683467       0.01825544      0.09255996        0.0070644     -0.01869362
                     0.007700765     -0.01858018       0.01825725      0.09255822       -0.1469157      -0.6834413       0.01674218       0.0922184
                     -0.00155965     0.006184207      0.007022467     -0.01918874       0.01708184      0.09288983        -0.145257      -0.6872947
5.5424                -0.1471855      -0.6839006       0.01771286       0.0934204      0.006998686     -0.01942794     -0.001198705     0.006352189
                      0.01655024      0.09271353       -0.1497621      -0.6807889       0.01902358      0.09290154      0.006986514      -0.0189265
                      0.00762614     -0.01883786       0.01902537       0.0928998       -0.1496984       -0.680764       0.01751689      0.09258542
                    -0.001555613     0.006266351      0.006939957     -0.01941148       0.01786181      0.09324075       -0.1481259      -0.6846364
5.544                 -0.1500596      -0.6812429       0.01850412      0.09376885      0.006912091     -0.01965431     -0.001190547     0.006421459
                       0.0173381      0.09311303       -0.1525346      -0.6780852       0.01980276      0.09324154      0.006903918     -0.01916344
                     0.007545789     -0.01909962       0.01980454      0.09323984       -0.1524694      -0.6780609       0.01830343      0.09295032
                    -0.001549721     0.006351066      0.006853323     -0.01963813       0.01865285      0.09358944        -0.150984      -0.6819497
5.5456                -0.1529226      -0.6785566        0.0193066      0.09411484      0.006821157     -0.01988456     -0.001181066     0.006493238
                      0.01813937      0.09350994       -0.1552944      -0.6753557       0.02059318      0.09357978      0.006816387     -0.01940438
                     0.007459488     -0.01936536       0.02059497       0.0935781        -0.155228      -0.6753321       0.01910196      0.09331289
                     -0.00154185     0.006438323      0.006762324     -0.01986867       0.01945514      0.09393571       -0.1538298      -0.6792347
5.5472                -0.1557755      -0.6758409       0.02012048      0.09445813       0.00672568     -0.02011862     -0.001170129     0.006567519
                      0.01895424      0.09390396       -0.1580417      -0.6726001       0.02139517      0.09391601      0.006723688     -0.01964926
                     0.007367002     -0.01963496       0.02139691      0.09391434       -0.1579737      -0.6725773       0.01991281      0.09367283
                    -0.001531874     0.006528089      0.006666744     -0.02010305       0.02026894      0.09427933       -0.1566641      -0.6764907
5.5488                -0.1586174      -0.6730959         0.020946      0.09479847      0.006625446     -0.02035644     -0.001157615     0.006644291
                      0.01978295      0.09429472       -0.1607763      -0.6698183       0.02220892      0.09424999      0.006625606     -0.01989797
                     0.007268101      -0.0199083       0.02221064      0.09424834       -0.1607072      -0.6697963       0.02073613      0.09402986
                    -0.001519668     0.006620327       0.00656635     -0.02034122       0.02109441      0.09462003       -0.1594862      -0.6737179
5.5504                 -0.161448      -0.6703211       0.02178333      0.09513561        0.0065202     -0.02059797     -0.001143395     0.006723539
                      0.02062566      0.09468192       -0.1634982      -0.6670102       0.02303469      0.09458143      0.006521919     -0.02015043
                     0.007162607     -0.02018522       0.02303641      0.09457981       -0.1634274       -0.666989        0.0215721      0.09438368
                    -0.001505113     0.006714994      0.006460954     -0.02058308       0.02193183      0.09495756       -0.1622959      -0.6709158
5.552                  -0.164267      -0.6675164       0.02263272      0.09546927      0.006409762     -0.02084312     -0.001127339     0.006805241
                       0.0214826      0.09506516        -0.166207      -0.6641756       0.02387271      0.09491009      0.006412375     -0.02040654
                     0.007050259     -0.02046562       0.02387442      0.09490848       -0.1661347      -0.6641554       0.02242102      0.09473399
                    -0.001488078     0.006812042      0.006350285      -0.0208286       0.02278135      0.09529165       -0.1650924      -0.6680847
5.5536                -0.1670744      -0.6646814       0.02349436      0.09579919      0.006293868     -0.02109182     -0.001109322     0.006889372
                      0.02235387       0.0954441       -0.1689029      -0.6613141       0.02472325      0.09523565      0.006296757      -0.0206662
                     0.006930887     -0.02074931       0.02472492      0.09523406       -0.1688294      -0.6612949       0.02328302      0.09508049
                    -0.001468445     0.006911417      0.006234145     -0.02107767        0.0236432      0.09562202       -0.1678762      -0.6652239
5.5552                -0.1698693      -0.6618162       0.02436843      0.09612508      0.006172329     -0.02134396     -0.001089213     0.006975899
                       0.0232397      0.09581835       -0.1715854      -0.6584259       0.02558651      0.09555782      0.006174857     -0.02092927
                     0.006804252     -0.02103615       0.02558817      0.09555624       -0.1715102      -0.6584077       0.02415833      0.09542283
                     -0.00144609     0.007013066      0.006112308      -0.0213302       0.02451758      0.09594837       -0.1706468      -0.6623333
5.5568                -0.1726521      -0.6589202       0.02525513      0.09644663      0.006044893     -0.02159946     -0.001066884     0.007064786
                      0.02414022       0.0961875        -0.174254      -0.6555107       0.02646271      0.09587628      0.006046451     -0.02119562
                     0.006670155     -0.02132597       0.02646433      0.09587474       -0.1741778      -0.6554936       0.02504708      0.09576069
                    -0.001420895     0.007116922      0.005984548     -0.02158609       0.02540468      0.09627039       -0.1734039      -0.6594128
5.5584                -0.1754216      -0.6559933       0.02615464      0.09676352      0.005911356      -0.0218582     -0.001042211     0.007155993
                      0.02505557      0.09655118       -0.1769093       -0.652568       0.02735206      0.09619074      0.005911309     -0.02146513
                     0.006528409     -0.02161858       0.02735369       0.0961892       -0.1768314      -0.6525521       0.02594947      0.09609369
                    -0.001392737     0.007222921      0.005850628     -0.02184524       0.02630467      0.09658777       -0.1761471      -0.6564622
5.56                  -0.1781782      -0.6530352       0.02706713      0.09707544      0.005771504     -0.02212006      -0.00101506     0.007249472
                       0.0259859      0.09690899       -0.1795504      -0.6495979        0.0282548      0.09650079      0.005769228     -0.02173763
                     0.006378799     -0.02191382       0.02825639      0.09649929       -0.1794712      -0.6495832       0.02686571       0.0964215
                      -0.0013615     0.007330992      0.005710364     -0.02210752       0.02721778      0.09690017       -0.1788759      -0.6534812
5.5616                -0.1809214      -0.6500456       0.02799276      0.09738203      0.005625093     -0.02238492    -0.0009853077      0.00734517
                      0.02693134      0.09726046       -0.1821775      -0.6466001       0.02917109      0.09680613      0.005619983     -0.02201298
                     0.006221143     -0.02221147       0.02917268      0.09680464       -0.1820968      -0.6465867       0.02779591      0.09674373
                    -0.001327069     0.007441056      0.005563503     -0.02237279       0.02814409      0.09720728         -0.18159      -0.6504697
5.5632                -0.1836502      -0.6470246       0.02893173      0.09768297      0.005471938     -0.02265263    -0.0009528298     0.007443031
                      0.02789198      0.09760521         -0.18479      -0.6435744       0.03010114      0.09710638      0.005463382     -0.02229101
                      0.00605525     -0.02251134       0.03010271      0.09710491       -0.1847081      -0.6435622       0.02874026      0.09705999
                    -0.001289329     0.007553035      0.005409855     -0.02264091       0.02908379      0.09750873       -0.1842894      -0.6474273
5.5648                 -0.186365      -0.6439716       0.02988418      0.09797788      0.005311815     -0.02292305    -0.0009174973     0.007542992
                      0.02886794      0.09794279       -0.1873882      -0.6405205       0.03104515      0.09740116       0.00529919     -0.02257154
                     0.005880935     -0.02281323       0.03104672       0.0973997       -0.1873048      -0.6405097       0.02969885      0.09736991
                    -0.001248166     0.007666842      0.005249177     -0.02291175       0.03003711      0.09780415       -0.1869734      -0.6443539
5.5664                -0.1890652      -0.6408862        0.0308502      0.09826641      0.005144514     -0.02319603    -0.0008791898     0.007644986
                      0.02985929      0.09827277       -0.1899714      -0.6374382       0.03200328      0.09769006      0.005127238     -0.02285439
                     0.005698026     -0.02311691       0.03200481      0.09768865       -0.1898865      -0.6374289       0.03067186      0.09767307
                    -0.001203468     0.007782385      0.005081287     -0.02318515       0.03100413      0.09809316       -0.1896419      -0.6412494
5.568                 -0.1917499      -0.6377687       0.03183002      0.09854816      0.004969823     -0.02347139    -0.0008377827     0.007748939
                      0.03086611      0.09859468       -0.1925395      -0.6343274       0.03297567      0.09797272      0.004947292     -0.02313936
                      0.00550632     -0.02342216       0.03297719      0.09797131       -0.1924531      -0.6343195       0.03165935      0.09796905
                    -0.001155132     0.007899573      0.004905949     -0.02346092       0.03198499      0.09837542       -0.1922944      -0.6381134
5.5696                -0.1944193      -0.6346185       0.03282366      0.09882277      0.004787541     -0.02374896    -0.0007931548     0.007854774
                      0.03188851      0.09890807       -0.1950918      -0.6311876       0.03396251      0.09824871      0.004759186     -0.02342626
                       0.0053057     -0.02372875       0.03396401      0.09824732       -0.1950044      -0.6311813       0.03266149      0.09825744
                    -0.001103047     0.008018305      0.004722974      -0.0237389       0.03297983      0.09865049       -0.1949303      -0.6349458
5.5712                -0.1970726      -0.6314354        0.0338313      0.09908982       0.00459748     -0.02402856    -0.0007451911     0.007962408
                      0.03292648      0.09921248       -0.1976285      -0.6280189       0.03496394      0.09851759      0.004562726     -0.02371488
                     0.005095987     -0.02403643       0.03496543      0.09851623       -0.1975401      -0.6280141       0.03367836      0.09853783
                    -0.001047115     0.008138476      0.004532172     -0.02401891       0.03398871      0.09891801       -0.1975496      -0.6317464
5.5728                -0.1997094      -0.6282192       0.03485302       0.0993489      0.004399405     -0.02430999    -0.0006937711     0.008071752
                      0.03398013      0.09950741       -0.2001493      -0.6248208       0.03598006      0.09877893      0.004357717     -0.02400499
                     0.004877002     -0.02434496       0.03598152      0.09877761       -0.2000595      -0.6248177       0.03471002      0.09880973
                   -0.0009872332     0.008259981       0.00433333     -0.02430074       0.03501184      0.09917752       -0.2001517      -0.6285148
5.5744                 -0.202329      -0.6249698       0.03588894      0.09959961      0.004193167     -0.02459306    -0.0006387838     0.008182714
                       0.0350494      0.09979241       -0.2026538      -0.6215932       0.03701101      0.09903232      0.004144003     -0.02429636
                     0.004648636     -0.02465409       0.03701242      0.09903101       -0.2025625      -0.6215919       0.03575655      0.09907272
                   -0.0009233074     0.008382704      0.004126263     -0.02458419       0.03604925      0.09942863       -0.2027362      -0.6252511
5.576                 -0.2049318      -0.6216866       0.03693914      0.09984151       0.00397858     -0.02487755    -0.0005801094     0.008295194
                      0.03613441        0.100067       -0.2051416      -0.6183358       0.03805689      0.09927727      0.003921397     -0.02458877
                     0.004410711     -0.02496355       0.03805832      0.09927598       -0.2050494      -0.6183362       0.03681805      0.09932636
                   -0.0008552376     0.008506532      0.003910785     -0.02486905       0.03710103      0.09967089       -0.2053026      -0.6219549
5.5776                -0.2075163      -0.6183699       0.03800363       0.1000742       0.00375543     -0.02516325    -0.0005176524     0.008409091
                      0.03723502       0.1003306       -0.2076122      -0.6150484       0.03911776      0.09951331      0.003689736     -0.02488197
                      0.00416313     -0.02527308       0.03911921      0.09951205       -0.2075188      -0.6150506       0.03789452      0.09957013
                   -0.0007829353     0.008631343      0.003686715     -0.02515511       0.03816722      0.09990389       -0.2078505       -0.618626
5.5792                -0.2100822      -0.6150191       0.03908251       0.1002972      0.003523574     -0.02544992    -0.0004512937     0.008524297
                      0.03835136       0.1005829       -0.2100654      -0.6117307        0.0401938      0.09973998       0.00344887     -0.02517571
                     0.003905754      -0.0255824       0.04019516      0.09973875       -0.2099709      -0.6117347       0.03898596      0.09980364
                   -0.0007063182     0.008757013      0.003453874     -0.02544212       0.03924793       0.1001272       -0.2103793      -0.6152643
5.5808                -0.2126291      -0.6116341       0.04017585         0.10051      0.003282825     -0.02573733    -0.0003809308     0.008640698
                      0.03948334       0.1008232       -0.2125008      -0.6083826       0.04128494      0.09995681      0.003198632     -0.02546972
                     0.003638458     -0.02589124       0.04128636      0.09995558       -0.2124052      -0.6083885       0.04009249       0.1000263
                    -0.000625295     0.008883413      0.003212109     -0.02572985       0.04034315       0.1003403       -0.2128886      -0.6118696
5.5824                -0.2151566      -0.6082147       0.04128364       0.1007122      0.003033031     -0.02602524    -0.0003064709     0.008758179
                      0.04063081       0.1010511       -0.2149181      -0.6050036       0.04239137       0.1001633      0.002938899     -0.02576375
                     0.003361139      -0.0261993       0.04239272       0.1001621       -0.2148214      -0.6050115       0.04121405       0.1002377
                   -0.0005397947     0.009010411      0.002961225     -0.02601806       0.04145296       0.1005427       -0.2153779      -0.6084417
5.584                 -0.2176641      -0.6047609       0.04240594       0.1009034      0.002774031     -0.02631339    -0.0002278104     0.008876615
                      0.04179391       0.1012661       -0.2173168      -0.6015936       0.04351299       0.1003589      0.002669519     -0.02605752
                     0.003073697     -0.02650629       0.04351434       0.1003577       -0.2172192      -0.6016036       0.04235066       0.1004374
                    -0.000449733     0.009137872      0.002701093     -0.02630649       0.04257737        0.100734       -0.2178468      -0.6049803
5.5856                 -0.220151      -0.6012722       0.04354272        0.101083      0.002505669     -0.02660153    -0.0001448516     0.008995884
                      0.04297241       0.1014676       -0.2196965      -0.5981523       0.04464994       0.1005431      0.002390368     -0.02635074
                      0.00277604     -0.02681192       0.04465126        0.100542        -0.219598      -0.5981644       0.04350226       0.1006248
                   -0.0003550471     0.009265655      0.002431561     -0.02659488       0.04371639       0.1009137       -0.2202947      -0.6014854
5.5872                -0.2226165      -0.5977488       0.04469397       0.1012507      0.002227816     -0.02688938    -5.751634e-05     0.009115851
                      0.04416623       0.1016552       -0.2220568      -0.5946798       0.04580219       0.1007155      0.002101329     -0.02664314
                     0.002468082     -0.02711588       0.04580347       0.1007144       -0.2219574      -0.5946938       0.04466881       0.1007994
                   -0.0002556606     0.009393619      0.002152475     -0.02688295       0.04486993       0.1010813        -0.222721      -0.5979568
5.5888                -0.2250603      -0.5941901       0.04585968       0.1014058      0.001940326     -0.02717667     3.428782e-05     0.009236385
                      0.04537533       0.1018283       -0.2243972      -0.5911753       0.04696968       0.1008755      0.001802285      -0.0269344
                     0.002149751     -0.02741787       0.04697098       0.1008744        -0.224297      -0.5911916       0.04585033       0.1009607
                   -0.0001515059     0.009521618      0.001863713     -0.02717044       0.04603807       0.1012364       -0.2251252      -0.5943942
5.5904                -0.2274816      -0.5905963       0.04703982       0.1015479      0.001643086     -0.02746312     0.0001306464     0.009357344
                      0.04659958       0.1019863       -0.2267172      -0.5876389       0.04815245       0.1010225      0.001493134     -0.02722425
                     0.001820971     -0.02771757       0.04815372       0.1010215       -0.2266161      -0.5876575       0.04704665       0.1011083
                   -4.254302e-05     0.009649501      0.001565136     -0.02745705       0.04722077       0.1013784       -0.2275067      -0.5907975
5.592                   -0.22988       -0.586967       0.04823431       0.1016765      0.001335965     -0.02774844     0.0002316325     0.009478588
                      0.04783877       0.1021289       -0.2290164      -0.5840703       0.04935043       0.1011561      0.001173781     -0.02751236
                     0.001481702     -0.02801467       0.04935166       0.1011551       -0.2289146      -0.5840911       0.04825771       0.1012416
                    7.129943e-05     0.009777118       0.00125664     -0.02774249       0.04841786       0.1015068       -0.2298652      -0.5871667
5.5936                -0.2322547      -0.5833023        0.0494431       0.1017912      0.001018858     -0.02803233     0.0003373202     0.009599968
                      0.04909281       0.1022554       -0.2312943      -0.5804693       0.05056351       0.1012757     0.0008441403     -0.02779843
                     0.001131882     -0.02830884       0.05056476       0.1012747       -0.2311918      -0.5804924       0.04948345         0.10136
                     0.000190065     0.009904311     0.0009381113     -0.02802647       0.04962939       0.1016211       -0.2321997      -0.5835015
5.5952                -0.2346051      -0.5796018       0.05066609       0.1018913      0.000691659     -0.02831449     0.0004477794     0.009721332
                      0.05036153       0.1023654       -0.2335501      -0.5768358       0.05179175       0.1013807     0.0005041411     -0.02808214
                    0.0007714838     -0.02859976       0.05179291       0.1013798        -0.233447      -0.5768613       0.05072378        0.101463
                    0.0003138059      0.01003093     0.0006094527     -0.02830868       0.05085521       0.1017209       -0.2345098      -0.5798018
5.5968                -0.2369303      -0.5758656       0.05190319       0.1019765     0.0003542859     -0.02859461     0.0005630713     0.009842531
                      0.05164469       0.1024582       -0.2357839      -0.5731694       0.05303492       0.1014706     0.0001537158     -0.02836317
                    0.0004004779      -0.0288871        0.0530361       0.1014697         -0.23568      -0.5731972       0.05197844       0.1015503
                    0.0004425548       0.0101568     0.0002705608     -0.02858881       0.05209523       0.1018055        -0.236795      -0.5760675
5.5984                -0.2392302      -0.5720935       0.05315429       0.1020461     6.650116e-06     -0.02887238      0.000683262     0.009963403
                      0.05294215       0.1025334       -0.2379943      -0.5694699       0.05429295       0.1015449    -0.0002072013     -0.02864118
                    1.883827e-05     -0.02917053       0.05429415        0.101544       -0.2378902      -0.5695001        0.0532474       0.1016211
                    0.0005763429      0.01028177    -7.863242e-05     -0.02886654       0.05334941       0.1018745       -0.2390544      -0.5722985
5.6                   -0.2415036      -0.5682855       0.05441927       0.1020996    -0.0003513147     -0.02914747     0.0008083984      0.01008379
                      0.05425362       0.1025905       -0.2401815      -0.5657372        0.0555657       0.1016029    -0.0005786383     -0.02891584
                   -0.0003734298     -0.02944971       0.05556691       0.1016021       -0.2400768      -0.5657699        0.0545304        0.101675
                    0.0007152105      0.01040567    -0.0004381998     -0.02914155       0.05461747       0.1019274       -0.2412877      -0.5684947
5.6016                  -0.24375      -0.5644414       0.05569789       0.1021367    -0.0007196724     -0.02941956     0.0009385322      0.01020352
                      0.05557892       0.1026289       -0.2423446      -0.5619711       0.05685309       0.1016442    -0.0009606408     -0.02918683
                   -0.0007763308     -0.02972431       0.05685433       0.1016434       -0.2422393      -0.5620062       0.05582733       0.1017114
                    0.0008591773      0.01052833    -0.0008082189      -0.0294135       0.05589934       0.1019636       -0.2434939       -0.564656
5.6032                -0.2459686      -0.5605612       0.05699016       0.1021566     -0.001098492     -0.02968832       0.00107371      0.01032244
                      0.05691776       0.1026481       -0.2444828      -0.5581713       0.05815497       0.1016681     -0.001353244     -0.02945378
                    -0.001189844     -0.02999399       0.05815607       0.1016674       -0.2443774       -0.558209       0.05713793       0.1017298
                     0.001008257      0.01064959     -0.001188723     -0.02968208       0.05719484       0.1019826       -0.2456724      -0.5607823
5.6048                -0.2481589      -0.5566449       0.05829569        0.102159     -0.001487791     -0.02995341      0.001213967      0.01044037
                      0.05826984       0.1026476        -0.246596      -0.5543377       0.05947098       0.1016742     -0.001756438     -0.02971638
                    -0.001613961      -0.0302584       0.05947215       0.1016734       -0.2464901       -0.554378       0.05846198       0.1017298
                     0.001162476      0.01076927     -0.001579758     -0.02994693       0.05850374       0.1019839       -0.2478229      -0.5568736
5.6064                -0.2503201      -0.5526922       0.05961444       0.1021432     -0.001887618     -0.03021449      0.001359339      0.01055714
                      0.05963494       0.1026269        -0.248683      -0.5504701       0.06080107       0.1016617     -0.002170244     -0.02997426
                    -0.002048629      -0.0305172       0.06080221        0.101661       -0.2485769      -0.5505131       0.05979932       0.1017106
                      0.00132183      0.01088721     -0.001981364     -0.03020773       0.05982592        0.101967       -0.2499443      -0.5529297
5.608                 -0.2524511      -0.5487035       0.06094609       0.1021088     -0.002297998     -0.03047123      0.001509851      0.01067257
                      0.06101276       0.1025854       -0.2507434      -0.5465685       0.06214498       0.1016302     -0.002594657     -0.03022707
                    -0.002493802     -0.03077005       0.06214614       0.1016296       -0.2506373      -0.5466141       0.06114961       0.1016719
                      0.00148633      0.01100322     -0.002393545     -0.03046411       0.06116112       0.1019313       -0.2520361      -0.5489507
5.6096                -0.2545517      -0.5446785        0.0622904       0.1020552     -0.002718925     -0.03072326      0.001665525       0.0107865
                      0.06240287       0.1025227       -0.2527765      -0.5426325       0.06350246       0.1015792     -0.003029633     -0.03047446
                    -0.002949435     -0.03101659       0.06350359       0.1015785       -0.2526704      -0.5426808       0.06251258       0.1016131
                     0.001655978      0.01111713     -0.002816328     -0.03071574       0.06250911       0.1018762       -0.2540974      -0.5449365
5.6112                -0.2566207      -0.5406172       0.06364723        0.101982      -0.00315041     -0.03097024      0.001826379      0.01089873
                      0.06380502       0.1024383       -0.2547819      -0.5386622       0.06487327        0.101508     -0.003475181     -0.03071608
                    -0.003415465      -0.0312565       0.06487437       0.1015074       -0.2546756      -0.5387132         0.063888       0.1015337
                      0.00183075      0.01122877     -0.003249695     -0.03096225       0.06386958       0.1018014       -0.2561277      -0.5408872
5.6128                -0.2586576      -0.5365198       0.06501622       0.1018885     -0.003592438     -0.03121182      0.001992428      0.01100909
                      0.06521884       0.1023316       -0.2567585      -0.5346573       0.06625709        0.101416     -0.003931219     -0.03095157
                    -0.003891794      -0.0314894       0.06625816       0.1014155       -0.2566524      -0.5347109       0.06527548       0.1014331
                     0.002010647      0.01133795     -0.003693646      -0.0312033       0.06524233       0.1017062       -0.2581261      -0.5368025
5.6144                -0.2606615      -0.5323861       0.06639715       0.1017743     -0.004044982     -0.03144763      0.002163662       0.0111174
                      0.06664395       0.1022022        -0.258706      -0.5306178       0.06765363       0.1013028     -0.004397717     -0.03118057
                    -0.004378352     -0.03171497       0.06765471       0.1013023       -0.2585998      -0.5306742       0.06667472        0.101311
                     0.002195641      0.01144451     -0.004148152     -0.03143851       0.06662698       0.1015902       -0.2600919      -0.5326827
5.616                 -0.2626317      -0.5282164       0.06778956        0.101639     -0.004508007     -0.03167733      0.002340093      0.01122346
                      0.06807996       0.1020495       -0.2606229      -0.5265436       0.06906263       0.1011677     -0.004874607     -0.03140273
                    -0.004875022     -0.03193285        0.0690636       0.1011673       -0.2605172      -0.5266027       0.06808543       0.1011666
                     0.002385715      0.01154826     -0.004613161     -0.03166754       0.06802332       0.1014528       -0.2620242      -0.5285279
5.6176                -0.2645671      -0.5240106       0.06919327       0.1014819      -0.00498147     -0.03190054      0.002521696      0.01132711
                      0.06952648       0.1018732       -0.2625095      -0.5224346       0.07048363       0.1010103     -0.005361804     -0.03161767
                    -0.005381696     -0.03214271       0.07048468       0.1010099        -0.262404      -0.5224965       0.06950723       0.1009995
                     0.002580826      0.01164902     -0.005088636     -0.03189002       0.06943095       0.1012935       -0.2639226      -0.5243378
5.6192                -0.2664672      -0.5197689       0.07060794       0.1013025     -0.005465318     -0.03211692      0.002708477      0.01142814
                      0.07098301       0.1016727       -0.2643644      -0.5182907       0.07191635       0.1008299     -0.005859223     -0.03182504
                    -0.005898263     -0.03234418       0.07191736       0.1008296       -0.2642592      -0.5183555       0.07093969       0.1008093
                     0.002780943      0.01174661     -0.005574523     -0.03210558       0.07084955       0.1011118        -0.265786      -0.5201128
5.6208                -0.2683313      -0.5154912       0.07203307       0.1011004      -0.00595946     -0.03232608      0.002900401      0.01152638
                      0.07244917       0.1014476       -0.2661867      -0.5141119       0.07336044        0.100626     -0.006366771     -0.03202449
                    -0.006424576     -0.03253694       0.07336147       0.1006257       -0.2660821      -0.5141795       0.07238241       0.1005954
                     0.002986018      0.01184086     -0.006070731     -0.03231386       0.07227871       0.1009073       -0.2676138      -0.5158527
5.6224                -0.2701582       -0.511178       0.07346837       0.1008751     -0.006463837     -0.03252767      0.003097444      0.01162163
                      0.07392456       0.1011974       -0.2679761      -0.5098981       0.07481545       0.1003981     -0.006884326     -0.03221564
                    -0.006960486     -0.03272064       0.07481643       0.1003979       -0.2678719      -0.5099685       0.07383501       0.1003574
                     0.003196009      0.01193158      -0.00657719      -0.0325145       0.07371819       0.1006792       -0.2694049      -0.5115579
5.624                 -0.2719474      -0.5068291       0.07491354        0.100626     -0.006978335     -0.03272133      0.003299579       0.0117137
                       0.0754086       0.1009216       -0.2697317      -0.5056494       0.07628094       0.1001457     -0.007411759     -0.03239814
                     -0.00750585     -0.03289494       0.07628193       0.1001455        -0.269628      -0.5057226       0.07529709       0.1000947
                     0.003410854      0.01201861     -0.007093799     -0.03270712       0.07516736       0.1004274       -0.2711589      -0.5072282
5.6256                -0.2736976      -0.5024448       0.07636801       0.1003527     -0.007502842     -0.03290668      0.003506755      0.01180242
                      0.07690086       0.1006199       -0.2714523      -0.5013657       0.07775652      0.09986826     -0.007948947     -0.03257164
                    -0.008060496      -0.0330595       0.07775749       0.0998681       -0.2713492      -0.5014418        0.0767681      0.09980696
                     0.003630499      0.01210175     -0.007620447     -0.03289136       0.07662599       0.1001511       -0.2728748      -0.5028639
5.6272                -0.2754085      -0.4980253       0.07783141       0.1000548     -0.008037268     -0.03308337      0.003718933      0.01188758
                      0.07840087       0.1002918       -0.2731374      -0.4970471       0.07924174      0.09956516     -0.008495722     -0.03273578
                    -0.008624243       -0.033214       0.07924269      0.09956507       -0.2730354      -0.4971259       0.07824763      0.09949364
                     0.003854866      0.01218084        -0.008157     -0.03306686       0.07809356      0.09984994       -0.2745516      -0.4984652
5.6288                -0.2770788      -0.4935708       0.07930326      0.09973169     -0.008581445     -0.03325104      0.003936052        0.011969
                      0.07990803      0.09993687        -0.274786      -0.4926935       0.08073609      0.09923599     -0.009051938      -0.0328902
                    -0.009196893      -0.0333581       0.08073702      0.09923596       -0.2746848      -0.4927752       0.07973529      0.09915423
                     0.004083895      0.01225569     -0.008703344     -0.03323325       0.07956961      0.09952347       -0.2761886      -0.4940322
5.6304                 -0.278708      -0.4890814       0.08078322      0.09938292     -0.009135257     -0.03340932      0.004158062      0.01204649
                      0.08142178       0.0995548       -0.2763976      -0.4883051       0.08223904      0.09888026      -0.00961742     -0.03303456
                    -0.009778257     -0.03349147       0.08223999      0.09888025       -0.2762972      -0.4883896       0.08123039      0.09878842
                     0.004317499      0.01232614      -0.00925932     -0.03339017       0.08105375      0.09917118       -0.2777851      -0.4895651
5.632                 -0.2802949      -0.4845576       0.08227066      0.09900813     -0.009698539     -0.03355785       0.00438489      0.01211987
                      0.08294171      0.09914505       -0.2779708       -0.483882       0.08375014      0.09849742      -0.01019197     -0.03316849
                     -0.01036812      -0.0336138        0.0837511      0.09849747       -0.2778715      -0.4839693       0.08273248      0.09839571
                     0.004555591      0.01239201     -0.009824773     -0.03353726       0.08254538      0.09879266       -0.2793402       -0.485064
5.6336                -0.2818389      -0.4799994        0.0837651      0.09860685       -0.0102711     -0.03369628      0.004616471      0.01218895
                      0.08446719       0.0987073        -0.279505      -0.4794241       0.08526888      0.09808699      -0.01077541     -0.03329166
                     -0.01096626     -0.03372477       0.08526985      0.09808707       -0.2794068      -0.4795143       0.08424111      0.09797564
                     0.004798079      0.01245313      -0.01039953     -0.03367416       0.08404404      0.09838747       -0.2808529      -0.4805293
5.6352                -0.2833389      -0.4754073       0.08526608      0.09817861      -0.01085278     -0.03382425      0.004852709      0.01225354
                      0.08599765       0.0982412       -0.2809996      -0.4749317       0.08679462      0.09764855      -0.01136751     -0.03340374
                     -0.01157244     -0.03382405       0.08679559       0.0976487       -0.2809024      -0.4750247       0.08575565      0.09752782
                     0.005044874      0.01250933      -0.01098339     -0.03380051       0.08554919      0.09795514       -0.2823223      -0.4759612
5.6368                -0.2847944      -0.4707815       0.08677299      0.09772304      -0.01144339     -0.03394141      0.005093539      0.01231346
                      0.08753242      0.09774641       -0.2824532      -0.4704049       0.08832683      0.09718166      -0.01196806     -0.03350437
                     -0.01218641     -0.03391135       0.08832781      0.09718184       -0.2823575      -0.4705006       0.08727551       0.0970519
                     0.005295874      0.01256044      -0.01157618     -0.03391596       0.08706032      0.09749526       -0.2837479        -0.47136
5.6384                -0.2862041      -0.4661223       0.08828536       0.0972397      -0.01204271     -0.03404741      0.005338854      0.01236853
                      0.08907098      0.09722255        -0.283865      -0.4658438       0.08986493       0.0966858      -0.01257683     -0.03359324
                     -0.01280793     -0.03398637       0.08986591      0.09668606       -0.2837707      -0.4659424       0.08880018      0.09654745
                      0.00555096      0.01260631      -0.01217769     -0.03402016       0.08857687      0.09700742       -0.2851285      -0.4667259
5.64                  -0.2875675      -0.4614302       0.08980257      0.09672819      -0.01265051     -0.03414191      0.005588562      0.01241857
                       0.0906127      0.09666931       -0.2852346      -0.4612487       0.09140833      0.09616061      -0.01319357     -0.03367001
                     -0.01343672      -0.0340488       0.09140931      0.09616093       -0.2851414      -0.4613501       0.09032901      0.09601409
                     0.005810018      0.01264675      -0.01278767     -0.03411278       0.09009825      0.09649122       -0.2864634      -0.4620592
5.6416                -0.2888834      -0.4567054       0.09132407      0.09618814      -0.01326659     -0.03422457      0.005842558      0.01246339
                      0.09215692      0.09608637       -0.2865603      -0.4566197       0.09295637      0.09560565      -0.01381802     -0.03373435
                     -0.01407252     -0.03409835       0.09295737      0.09560601        -0.286469      -0.4567238       0.09186142      0.09545147
                     0.006072938      0.01268162      -0.01340592     -0.03419346       0.09162388      0.09594627       -0.2877515      -0.4573604
5.6432                -0.2901508      -0.4519484       0.09284924      0.09561918      -0.01389068     -0.03429504      0.006100724      0.01250283
                      0.09370303      0.09547343       -0.2878417      -0.4519571       0.09450843      0.09502051      -0.01444992     -0.03378596
                     -0.01471503     -0.03413474       0.09450942      0.09502093       -0.2877517      -0.4520639       0.09339675      0.09485923
                     0.006339593      0.01271076      -0.01403217     -0.03426186       0.09315314       0.0953722       -0.2889923      -0.4526298
5.6448                -0.2913693      -0.4471596       0.09437746      0.09502092      -0.01452253     -0.03435301      0.006362948       0.0125367
                      0.09525037      0.09483021       -0.2890777      -0.4472611       0.09606384       0.0944048      -0.01508899     -0.03382452
                     -0.01536397      -0.0341577       0.09606485      0.09440528       -0.2889895      -0.4473706        0.0949344      0.09423707
                     0.006609845      0.01273401      -0.01466616     -0.03431767       0.09468544      0.09476865       -0.2901845      -0.4478677
5.6464                -0.2925376      -0.4423395        0.0959081      0.09439305      -0.01516188     -0.03439815      0.006629099      0.01256485
                      0.09679823      0.09415644       -0.2902674       -0.442532       0.09762195      0.09375816      -0.01573492     -0.03384973
                     -0.01601903     -0.03416695       0.09762295       0.0937587       -0.2901808      -0.4426443       0.09647366      0.09358463
                     0.006883558      0.01275122      -0.01530764     -0.03436055       0.09622011      0.09413529       -0.2913273      -0.4430746
5.648                 -0.2936549      -0.4374885       0.09744056      0.09373524      -0.01580844     -0.03443014      0.006899049       0.0125871
                      0.09834596      0.09345189       -0.2914096      -0.4377701       0.09918204      0.09308024      -0.01638745     -0.03386129
                     -0.01667987     -0.03416223       0.09918307      0.09308084        -0.291325      -0.4378851       0.09801389      0.09290164
                     0.007160593      0.01276224      -0.01595632     -0.03439019       0.09775651      0.09347177       -0.2924201      -0.4382508
5.6496                -0.2947205      -0.4326071       0.09897412      0.09304716      -0.01646194     -0.03444867      0.007172662      0.01260328
                      0.09989285      0.09271628       -0.2925036      -0.4329759        0.1007434      0.09237069      -0.01704622     -0.03385891
                      -0.0173462     -0.03414329        0.1007445      0.09237135        -0.292421      -0.4330935       0.09955439      0.09218783
                     0.007440798      0.01276694       -0.0166119     -0.03440627       0.09929398       0.0927778       -0.2934618      -0.4333969
5.6512                -0.2957335      -0.4276958        0.1005081      0.09232852      -0.01712206     -0.03445344      0.007449801      0.01261323
                       0.1014382      0.09194943       -0.2935485      -0.4281496        0.1023054      0.09162918      -0.01771093     -0.03384231
                     -0.01801768     -0.03410987        0.1023064      0.09162991       -0.2934678      -0.4282697        0.1010945      0.09144289
                     0.007724028      0.01276516      -0.01727408     -0.03440849        0.1008318      0.09205303       -0.2944516      -0.4285133
5.6528                -0.2966928      -0.4227551        0.1020419      0.09157904       -0.0177885     -0.03444413      0.007730308       0.0126168
                       0.1029814      0.09115112       -0.2945431      -0.4232916        0.1038672      0.09085543      -0.01838126     -0.03381123
                     -0.01869396     -0.03406175        0.1038682      0.09085623       -0.2944646      -0.4234142        0.1026335      0.09066661
                      0.00801012      0.01275678      -0.01794254     -0.03439655        0.1023694      0.09129725       -0.2953884      -0.4236006
5.6544                -0.2975977      -0.4177857        0.1035748      0.09079846      -0.01846091     -0.03442049      0.008014034      0.01261383
                       0.1045215       0.0903212       -0.2954867      -0.4184023         0.105428      0.09004915      -0.01905685     -0.03376538
                     -0.01937468     -0.03399868        0.1054291      0.09005001       -0.2954103      -0.4185274        0.1041706      0.08985872
                     0.008298912      0.01274166      -0.01861694     -0.03437017        0.1039059      0.09051014       -0.2962717      -0.4186592
5.656                 -0.2984472      -0.4127882         0.105106      0.08998652      -0.01913899     -0.03438219      0.008300815      0.01260417
                        0.106058      0.08945944       -0.2963781      -0.4134821        0.1069872      0.08921008      -0.01973735     -0.03370452
                     -0.02005951     -0.03392045        0.1069883      0.08921098        -0.296304      -0.4136098        0.1057052      0.08901904
                     0.008590239      0.01271966      -0.01929696     -0.03432905        0.1054407      0.08969148       -0.2971002      -0.4136896
5.6576                -0.2992404      -0.4077629        0.1066348      0.08914299      -0.01982234       -0.034329      0.008590485      0.01258768
                         0.10759      0.08856577       -0.2972163      -0.4085316         0.108544      0.08833794      -0.02042239      -0.0336284
                     -0.02074804     -0.03382686        0.1085451      0.08833891       -0.2971447      -0.4086616        0.1072364      0.08814733
                     0.008883924      0.01269068      -0.01998226     -0.03427292         0.106973      0.08884102       -0.2978733      -0.4086926
5.6592                -0.2999768      -0.4027109        0.1081606      0.08826768      -0.02051067     -0.03426063      0.008882873      0.01256421
                       0.1091169      0.08764001       -0.2980005      -0.4035513        0.1100975      0.08743253       -0.0211116     -0.03353677
                     -0.02143992     -0.03371768        0.1100986      0.08743358       -0.2979312      -0.4036836        0.1087636      0.08724345
                     0.009179793      0.01265458      -0.02067245     -0.03420154        0.1085022      0.08795859         -0.29859      -0.4036687
5.6608                -0.3006549      -0.3976325        0.1096825      0.08736039      -0.02120358     -0.03417683        0.0091778      0.01253363
                       0.1106378      0.08668207       -0.2987297      -0.3985415         0.111647      0.08649365      -0.02180462     -0.03342942
                      -0.0221348     -0.03359275        0.1116481      0.08649474       -0.2986627      -0.3986762        0.1102859      0.08630724
                     0.009477664      0.01261126      -0.02136717     -0.03411463        0.1100274      0.08704395       -0.2992495      -0.3986185
5.6624                -0.3012745      -0.3925286        0.1111998      0.08642093      -0.02190067     -0.03407736      0.009475084       0.0124958
                        0.112152      0.08569186       -0.2994028       -0.393503        0.1131916       0.0855211      -0.02250102     -0.03330613
                     -0.02283222     -0.03345186        0.1131927      0.08552229       -0.2993385        -0.39364        0.1118027      0.08533855
                     0.009777351       0.0125606      -0.02206605     -0.03401195        0.1115478      0.08609696       -0.2998509      -0.3935425
5.664                 -0.3018346      -0.3873997        0.1127117      0.08544914       -0.0226016     -0.03396198      0.009774539       0.0124506
                       0.1136587      0.08466933        -0.300019      -0.3884362        0.1147305      0.08451473      -0.02320043     -0.03316668
                     -0.02353184     -0.03329486        0.1147317      0.08451597       -0.2999572      -0.3885755        0.1133131      0.08433726
                      0.01007866       0.0125025      -0.02276869     -0.03389326        0.1130628      0.08511745       -0.3003935      -0.3884417
5.6656                -0.3023341      -0.3822467        0.1142175      0.08444494      -0.02330594     -0.03383046       0.01007597       0.0123979
                       0.1151572       0.0836144       -0.3005772      -0.3833418        0.1162629      0.08347439      -0.02390242     -0.03301088
                     -0.02423321     -0.03312159        0.1162641      0.08347571       -0.3005181      -0.3834833        0.1148162      0.08330329
                       0.0103814      0.01243687       -0.0234747     -0.03375835        0.1145715      0.08410531        -0.300876      -0.3833166
5.6672                -0.3027723      -0.3770703        0.1157164      0.08340818      -0.02401331      -0.0336826       0.01037918       0.0123376
                       0.1166466      0.08252706       -0.3010764      -0.3782206         0.117788      0.08239996       -0.0246066     -0.03283855
                     -0.02493596     -0.03293187        0.1177892      0.08240134       -0.3010201      -0.3783641        0.1163114      0.08223655
                      0.01068538      0.01236359      -0.02418366     -0.03360699        0.1160731      0.08306041       -0.3012981      -0.3781679
5.6688                -0.3031484      -0.3718712        0.1172075      0.08233874      -0.02472327     -0.03351818       0.01068397      0.01226957
                       0.1181263      0.08140729       -0.3015156       -0.373073        0.1193049      0.08129136      -0.02531253     -0.03264952
                     -0.02563964     -0.03272559        0.1193061      0.08129281       -0.3014624      -0.3732185        0.1177979      0.08113699
                      0.01099038       0.0122826      -0.02489517       -0.033439        0.1175669      0.08198266       -0.3016586      -0.3729965
5.6704                -0.3034615      -0.3666504        0.1186901       0.0812366      -0.02543541     -0.03333701       0.01099012      0.01219371
                       0.1195953      0.08025512       -0.3018941      -0.3678998        0.1208126       0.0801485       -0.0260198      -0.0324436
                     -0.02634384     -0.03250263         0.120814      0.08015002       -0.3018437      -0.3680473        0.1192747      0.08000457
                      0.01129621       0.0121938      -0.02560879     -0.03325415        0.1190519      0.08087199       -0.3019567      -0.3678029
5.672                 -0.3037111      -0.3614086        0.1201634      0.08010168      -0.02614932     -0.03313891       0.01129744      0.01210993
                       0.1210529      0.07907057       -0.3022109      -0.3627017        0.1223105      0.07897133      -0.02672794     -0.03222067
                     -0.02704814     -0.03226283        0.1223118      0.07897291       -0.3021634      -0.3628511        0.1207412      0.07883929
                      0.01160266      0.01209712      -0.02632407      -0.0330523        0.1205275      0.07972837       -0.3021916      -0.3625883
5.6736                 -0.303896      -0.3561468        0.1216265      0.07893395      -0.02686451     -0.03292373       0.01160569      0.01201812
                       0.1224983      0.07785369       -0.3024647      -0.3574796        0.1237976      0.07775983      -0.02743651     -0.03198058
                     -0.02775209     -0.03200614        0.1237989      0.07776149       -0.3024204      -0.3576308        0.1221964      0.07764115
                      0.01190951      0.01199249      -0.02704061     -0.03283326        0.1219928      0.07855176       -0.3023627      -0.3573532
5.6752                -0.3040158      -0.3508655        0.1230786      0.07773344      -0.02758058     -0.03269129       0.01191467      0.01191821
                       0.1239308      0.07660457       -0.3026549      -0.3522341        0.1252729      0.07651402      -0.02814507      -0.0317232
                     -0.02845526     -0.03173244        0.1252744      0.07651572       -0.3026137      -0.3523871        0.1236396      0.07641018
                      0.01221654      0.01187984      -0.02775794     -0.03259687        0.1234469      0.07734218        -0.302469      -0.3520985
5.6768                -0.3040696      -0.3455659         0.124519      0.07650013      -0.02829707     -0.03244144       0.01222415      0.01181011
                       0.1253494       0.0753233       -0.3027806      -0.3469661        0.1267358      0.07523388      -0.02885318     -0.03144842
                     -0.02915722     -0.03144165        0.1267372      0.07523566       -0.3027424      -0.3471207        0.1250699      0.07514644
                      0.01252355      0.01175911      -0.02847557     -0.03234301         0.124889       0.0760996       -0.3025097      -0.3468253
5.6784                -0.3040565      -0.3402489        0.1259467      0.07523406       -0.0290135     -0.03217406       0.01253389      0.01169374
                       0.1267534      0.07400999       -0.3028407      -0.3416764        0.1281851       0.0739195      -0.02956034     -0.03115615
                     -0.02985749     -0.03113371        0.1281866      0.07392135       -0.3028057      -0.3418328        0.1264865      0.07385001
                       0.0128303      0.01163025       -0.0291931     -0.03207153        0.1263183      0.07482412        -0.302484      -0.3415342
5.68                   -0.303976      -0.3349155         0.127361      0.07393532      -0.02972942     -0.03188904       0.01284368      0.01156904
                        0.128142      0.07266481       -0.3028342      -0.3363661        0.1296201      0.07257093      -0.03026612     -0.03084629
                     -0.03055564     -0.03080856        0.1296216      0.07257284       -0.3028027      -0.3365238        0.1278886      0.07252099
                      0.01313658      0.01149322      -0.02991002     -0.03178232         0.127734      0.07351577       -0.3023914      -0.3362263
5.6816                -0.3038272      -0.3295665        0.1287609      0.07260396      -0.03044436     -0.03158627       0.01315328      0.01143595
                       0.1295143      0.07128789       -0.3027606      -0.3310357        0.1310398      0.07118826      -0.03097001     -0.03051878
                      -0.0312512     -0.03046616        0.1310414      0.07119025       -0.3027323      -0.3311949        0.1292753       0.0711595
                      0.01344215      0.01134797      -0.03062584     -0.03147529        0.1291351      0.07217465       -0.3022309      -0.3309025
5.6832                -0.3036095       -0.324203        0.1301457      0.07124013      -0.03115783     -0.03126566       0.01346244      0.01129442
                       0.1308697      0.06987943       -0.3026187      -0.3256864        0.1324434      0.06977164      -0.03167156     -0.03017354
                     -0.03194373     -0.03010648         0.132445       0.0697737       -0.3025939      -0.3258471        0.1306458      0.06976568
                      0.01374679      0.01119447      -0.03134013     -0.03115032        0.1305209      0.07080088       -0.3020018      -0.3255638
5.6848                -0.3033222      -0.3188259        0.1315145      0.06984391      -0.03186936     -0.03092711       0.01377094      0.01114438
                       0.1322072      0.06843965       -0.3024077      -0.3203192        0.1338299      0.06832121      -0.03237026     -0.02981054
                     -0.03263275     -0.02972949        0.1338316      0.06832334       -0.3023863      -0.3204811        0.1319992      0.06833972
                      0.01405027      0.01103269      -0.03205237     -0.03080736        0.1318905      0.06939458       -0.3017034      -0.3202111
5.6864                -0.3029647      -0.3134364        0.1328665      0.06841551      -0.03257846     -0.03057058       0.01407852      0.01098582
                       0.1335261      0.06696873       -0.3021267      -0.3149349        0.1351984      0.06683714      -0.03306567     -0.02942974
                     -0.03331783     -0.02933521        0.1352002      0.06683933       -0.3021087      -0.3150981        0.1333348      0.06688181
                      0.01435236      0.01086262      -0.03276208     -0.03044633        0.1332431      0.06795593       -0.3013348      -0.3148456
5.688                  -0.302536      -0.3080355        0.1342009      0.06695508      -0.03328462     -0.03019603       0.01438495      0.01081869
                       0.1348255      0.06546698        -0.301775      -0.3095347        0.1365481      0.06531963      -0.03375727     -0.02903113
                     -0.03399847     -0.02892364        0.1365499      0.06532189       -0.3017606      -0.3096989        0.1346516      0.06539214
                      0.01465281      0.01068423      -0.03346875      -0.0300672        0.1345777       0.0664851       -0.3008957      -0.3094682
5.6896                -0.3020358      -0.3026242        0.1355167      0.06546284      -0.03398737     -0.02980339       0.01468997      0.01064296
                       0.1361047      0.06393464       -0.3013515      -0.3041196         0.137878      0.06376892      -0.03444458     -0.02861471
                      -0.0346742      -0.0284948        0.1378799      0.06377125       -0.3013408      -0.3042849        0.1359488      0.06387097
                      0.01495141      0.01049753      -0.03417191     -0.02966993        0.1358936      0.06498232       -0.3003852        -0.30408
5.6912                -0.3014635      -0.2972037        0.1368131      0.06393898      -0.03468619     -0.02939266       0.01499334      0.01045863
                        0.137363        0.062372       -0.3008558      -0.2986906        0.1391873      0.06218526       -0.0351271     -0.02818046
                     -0.03534458     -0.02804873        0.1391892      0.06218764       -0.3008486      -0.2988568        0.1372256      0.06231858
                      0.01524791      0.01030251      -0.03487102     -0.02925449        0.1371899       0.0634478       -0.2998027      -0.2986821
5.6928                -0.3008185       -0.291775        0.1380894       0.0623838       -0.0353806     -0.02896383       0.01529481      0.01026567
                       0.1385994      0.06077939       -0.3002868      -0.2932489        0.1404749      0.06056891      -0.03580435     -0.02772843
                     -0.03600913     -0.02758547        0.1404769      0.06057136       -0.3002833      -0.2934159        0.1384812      0.06073523
                      0.01554206      0.01009919       -0.0355656     -0.02882089        0.1384658      0.06188179       -0.2991475      -0.2932757
5.6944                -0.3000998      -0.2863394        0.1393446      0.06079755      -0.03607007     -0.02851691       0.01559412      0.01006409
                       0.1398132      0.05915714       -0.2996438      -0.2877955        0.1417401       0.0589202      -0.03647581     -0.02725866
                     -0.03666738     -0.02710508        0.1417422      0.05892271       -0.2996439      -0.2879634        0.1397148      0.05912125
                      0.01583365     0.009887565      -0.03625515     -0.02836914        0.1397203       0.0602846       -0.2984191      -0.2878618
5.696                 -0.2993074      -0.2808979        0.1405779      0.05918053      -0.03675411     -0.02805191       0.01589102     0.009853891
                       0.1410036      0.05750563        -0.298926      -0.2823318         0.142982      0.05723945      -0.03714101     -0.02677119
                     -0.03731885     -0.02660766        0.1429841      0.05724203         -0.29893      -0.2825002        0.1409255      0.05747698
                      0.01612241      0.00966767      -0.03693914     -0.02789926        0.1409527      0.05865652       -0.2976168      -0.2824416
5.6976                -0.2984406      -0.2754519        0.1417885      0.05753306      -0.03743222      -0.0275689       0.01618526     0.009635083
                       0.1421699       0.0558252       -0.2981327      -0.2768588        0.1441996      0.05552703      -0.03779944     -0.02626609
                     -0.03796308     -0.02609329        0.1442018      0.05552966       -0.2981406      -0.2770278        0.1421124      0.05580276
                      0.01640813      0.00943953      -0.03761707      -0.0274113        0.1421622      0.05699789         -0.29674      -0.2770163
5.6992                -0.2974986      -0.2700024        0.1429756      0.05585551      -0.03810387      -0.0270679       0.01647658      0.00940769
                       0.1433112       0.0541163       -0.2972634      -0.2713777         0.145392      0.05378331      -0.03845061     -0.02574346
                     -0.03859961     -0.02556206        0.1453943      0.05378601       -0.2972749      -0.2715471        0.1432749      0.05409897
                      0.01669055     0.009203179      -0.03828841     -0.02690532        0.1433478      0.05530905       -0.2957883       -0.271587
5.7008                -0.2964815      -0.2645506        0.1441383      0.05414823      -0.03876856     -0.02654901       0.01676473     0.009171738
                       0.1444269      0.05237933       -0.2963171      -0.2658899        0.1465585      0.05200871      -0.03909399      -0.0252034
                     -0.03922796     -0.02501409        0.1465608      0.05201147       -0.2963324      -0.2660597        0.1444121      0.05236604
                      0.01696945     0.008958661      -0.03895269     -0.02638138        0.1445088      0.05359039       -0.2947611       -0.266155
5.7024                -0.2953881       -0.259098        0.1452758      0.05241163      -0.03942578     -0.02601229       0.01704944     0.008927261
                       0.1455162      0.05061473       -0.2952932      -0.2603965         0.147698      0.05020367      -0.03972913     -0.02464599
                     -0.03984768     -0.02444952        0.1477004      0.05020649       -0.2953124      -0.2605666        0.1455231      0.05060439
                      0.01724456     0.008706026      -0.03960934     -0.02583957        0.1456443      0.05184231       -0.2936578      -0.2607216
5.704                 -0.2942185      -0.2536455        0.1463874      0.05064612      -0.04007502     -0.02545784       0.01733048     0.008674305
                       0.1465784        0.048823       -0.2941913      -0.2548989        0.1488098      0.04836864      -0.04035551     -0.02407138
                      -0.0404583     -0.02386848        0.1488123      0.04837152       -0.2942144      -0.2550691        0.1466072      0.04881446
                      0.01751567      0.00844533       -0.0402579     -0.02527998        0.1467536      0.05006524       -0.2924781       -0.255288
5.7056                -0.2929721      -0.2481946        0.1474721      0.04885216      -0.04071577     -0.02488579       0.01760757     0.008412921
                       0.1476126      0.04700458       -0.2930106      -0.2493983        0.1498931      0.04650412      -0.04097264     -0.02347972
                     -0.04105933     -0.02327116        0.1498956      0.04650707       -0.2930375      -0.2495686        0.1476637      0.04699674
                      0.01778254     0.008176638      -0.04089784     -0.02470275        0.1478358      0.04825963       -0.2912214      -0.2498555
5.7072                -0.2916486      -0.2427465        0.1485293       0.0470302       -0.0413475     -0.02429627       0.01788046     0.008143168
                       0.1486182      0.04516002       -0.2917504      -0.2438962        0.1509469      0.04461064      -0.04158003     -0.02287116
                     -0.04165035     -0.02265769        0.1509495      0.04461363       -0.2917812      -0.2440664        0.1486917      0.04515172
                      0.01804492     0.007900022      -0.04152862     -0.02410802        0.1488901      0.04642595       -0.2898872      -0.2444254
5.7088                -0.2902472      -0.2373026        0.1495581      0.04518073      -0.04196975     -0.02368941       0.01814891     0.007865114
                       0.1495945      0.04328984       -0.2904102      -0.2383938        0.1519704       0.0426887      -0.04217719     -0.02224586
                      -0.0422309     -0.02202828        0.1519731      0.04269175       -0.2904451      -0.2385639        0.1496905      0.04327993
                      0.01830259     0.007615559      -0.04214977     -0.02349591        0.1499157      0.04456471       -0.2884754      -0.2389989
5.7104                -0.2887682      -0.2318641        0.1505578      0.04330428      -0.04258199     -0.02306538       0.01841265     0.007578834
                       0.1505407      0.04139458       -0.2889896      -0.2328926        0.1529628       0.0407389      -0.04276365     -0.02160401
                     -0.04280053     -0.02138311        0.1529656      0.04074201       -0.2890284      -0.2330625        0.1506593      0.04138191
                      0.01855529     0.007323335      -0.04276077     -0.02286661        0.1509119      0.04267642       -0.2869852      -0.2335774
5.712                 -0.2872109      -0.2264324        0.1515275      0.04140138       -0.0431837     -0.02242435       0.01867143     0.007284411
                       0.1514562      0.03947481        -0.287488      -0.2273941        0.1539233      0.03876181      -0.04333891     -0.02094584
                     -0.04335877     -0.02072241        0.1539262      0.03876497       -0.2875308      -0.2275635        0.1515974      0.03945822
                      0.01880282     0.007023442      -0.04336113     -0.02222028        0.1518779      0.04076163       -0.2854166      -0.2281623
5.7136                -0.2855752      -0.2210088        0.1524666      0.03947259      -0.04377442     -0.02176652       0.01892501     0.006981936
                       0.1523403      0.03753114        -0.285905      -0.2218995        0.1548511      0.03675806       -0.0439025     -0.02027152
                      -0.0439052      -0.0200464        0.1548541      0.03676127       -0.2859516      -0.2220685        0.1525041      0.03750945
                      0.01904493     0.006715982      -0.04395032     -0.02155714        0.1528129      0.03882091       -0.2837692       -0.222755
5.7152                -0.2838606      -0.2155947        0.1533743       0.0375185      -0.04435363      -0.0210921       0.01917313     0.006671508
                       0.1531924      0.03556416       -0.2842401      -0.2164103        0.1557455      0.03472828      -0.04445395     -0.01958131
                     -0.04443937      -0.0193553        0.1557485      0.03473154       -0.2842906      -0.2165788        0.1533787       0.0355362
                      0.01928139     0.006401058      -0.04452788     -0.02087739        0.1537162      0.03685486       -0.2820425      -0.2173567
5.7168                 -0.282067      -0.2101915        0.1542498      0.03553971      -0.04492085     -0.02040132       0.01941555     0.006353233
                       0.1540117      0.03357451       -0.2824928      -0.2109282        0.1566055      0.03267314      -0.04499278     -0.01887545
                     -0.04496087     -0.01864937        0.1566087      0.03267644       -0.2825472       -0.211096        0.1542203      0.03353912
                      0.01951198     0.006078787      -0.04509329     -0.02018125        0.1545871      0.03486408       -0.2802365       -0.211969
5.7184                -0.2801942      -0.2048006        0.1550925      0.03353684      -0.04547559     -0.01969438       0.01965202      0.00602723
                       0.1547977      0.03156283       -0.2806628      -0.2054544        0.1574306      0.03059331      -0.04551855     -0.01815421
                     -0.04546923     -0.01792888        0.1574339      0.03059667       -0.2807212      -0.2056215        0.1550285      0.03151885
                      0.01973648     0.005749288      -0.04564607     -0.01946897        0.1554248      0.03284921       -0.2783508      -0.2065931
5.72                  -0.2782421      -0.1994233        0.1559017      0.03151055      -0.04601737     -0.01897157       0.01988231     0.005693615
                       0.1555497      0.02952979       -0.2787497      -0.1999906        0.1582199      0.02848952      -0.04603077     -0.01741785
                     -0.04596409     -0.01719409        0.1582233      0.02849293       -0.2788119      -0.2001569        0.1558024      0.02947607
                      0.01995467     0.005412688      -0.04618575     -0.01874079        0.1562286      0.03081091       -0.2763852      -0.2012307
5.7216                -0.2762103      -0.1940611        0.1566766       0.0294615      -0.04654573     -0.01823315       0.02010616      0.00535252
                       0.1562672      0.02747608       -0.2767532      -0.1945384        0.1589727       0.0263625      -0.04652904     -0.01666665
                     -0.04644497     -0.01644531        0.1589762      0.02636595       -0.2768194      -0.1947035        0.1565415      0.02741147
                      0.02016632     0.005069122      -0.04671184       -0.017997        0.1569978      0.02874986       -0.2743396      -0.1958829
5.7232                 -0.274099      -0.1887153        0.1574166       0.0273904      -0.04706017     -0.01747938       0.02032335     0.005004085
                       0.1569495      0.02540239       -0.2746731       -0.189099        0.1596884        0.024213      -0.04701287     -0.01590092
                     -0.04691151     -0.01568282        0.1596919      0.02421649       -0.2747431      -0.1892632        0.1572451      0.02532575
                      0.02037122      0.00471873      -0.04722388     -0.01723789        0.1577318      0.02666676       -0.2722137      -0.1905513
5.7248                -0.2719079      -0.1833876         0.158121      0.02529794      -0.04756024      -0.0167106       0.02053364     0.004648452
                        0.157596      0.02330946       -0.2725091      -0.1836743        0.1603661       0.0220418      -0.04748184     -0.01512097
                     -0.04736329     -0.01490695        0.1603698      0.02204533       -0.2725829      -0.1838371        0.1579125      0.02321965
                      0.02056916     0.004361662       -0.0477214     -0.01646375        0.1584299      0.02456233       -0.2700076      -0.1852375
5.7264                 -0.269637      -0.1780791        0.1587893      0.02318487       -0.0480455     -0.01592707       0.02073681     0.004285774
                       0.1582063        0.021198       -0.2702608      -0.1782658        0.1610053      0.01984969      -0.04793553     -0.01432715
                     -0.04779992     -0.01411801        0.1610091      0.01985326       -0.2703385      -0.1784274        0.1585432      0.02109392
                      0.02075994      0.00399807      -0.04820395     -0.01567489        0.1590915      0.02243731       -0.2677209      -0.1799428
5.728                 -0.2672863      -0.1727914        0.1594207      0.02105193       -0.0485155     -0.01512915       0.02093262     0.003916213
                       0.1587796      0.01906878       -0.2679282       -0.172875        0.1616054      0.01763752       -0.0483735     -0.01351978
                     -0.04822101     -0.01331635        0.1616092      0.01764112       -0.2680097      -0.1730352        0.1591365      0.01894933
                      0.02094334     0.003628115      -0.04867107     -0.01487166         0.159716      0.02029246       -0.2653538      -0.1746687
5.7296                -0.2648557      -0.1675261        0.1600146       0.0188999      -0.04896979     -0.01431717       0.02112085     0.003539934
                       0.1593157      0.01692258       -0.2655112      -0.1675036        0.1621656      0.01540609      -0.04879536     -0.01269923
                     -0.04862619      -0.0125023        0.1621696      0.01540973       -0.2655965      -0.1676623         0.159692      0.01678666
                      0.02111917     0.003251965      -0.04912234     -0.01405438        0.1603026      0.01812857       -0.2629063      -0.1694167
5.7312                -0.2623453      -0.1622844        0.1605706      0.01672957      -0.04940794     -0.01349148       0.02130129     0.003157112
                       0.1598138      0.01476016       -0.2630095      -0.1621531        0.1626853       0.0131563       -0.0492007     -0.01186584
                      -0.0490151     -0.01167624        0.1626894      0.01315997       -0.2630986      -0.1623102         0.160209      0.01460673
                      0.02128723     0.002869792      -0.04955731     -0.01322342         0.160851      0.01594643       -0.2603782      -0.1641883
5.7328                -0.2597552      -0.1570679         0.161088      0.01454174      -0.04982954     -0.01265246       0.02147372     0.002767928
                       0.1602736      0.01258233       -0.2604232      -0.1568253        0.1631641        0.010889      -0.04958913     -0.01102001
                     -0.04938736     -0.01083853        0.1631683      0.01089271        -0.260516      -0.1569806         0.160687      0.01241036
                      0.02144732     0.002481777      -0.04997557     -0.01237916        0.1613604      0.01374686       -0.2577696       -0.158985
5.7344                -0.2570855      -0.1518781        0.1615662      0.01233724      -0.05023415     -0.01180048       0.02163794      0.00237257
                       0.1606946      0.01038991       -0.2577522      -0.1515217        0.1636013     0.008605112      -0.04996026     -0.01016214
                     -0.04974265    -0.009989535        0.1636056     0.008608843       -0.2578487      -0.1516753        0.1611255      0.01019837
                      0.02159927     0.002088104       -0.0503767     -0.01152197        0.1618303       0.0115307       -0.2550808      -0.1538083
5.736                 -0.2543363      -0.1467165        0.1620048      0.01011692      -0.05062139     -0.01093592       0.02179374     0.001971234
                       0.1610763      0.00818373       -0.2549965       -0.146244        0.1639963     0.006305543      -0.05031371    -0.009292626
                      -0.0500806    -0.009129661        0.1640007     0.006309301       -0.2550966      -0.1463957        0.1615241     0.007971636
                       0.0217429     0.001688964       -0.0507603     -0.01065225        0.1622602       0.0092988       -0.2523116      -0.1486598
5.7376                -0.2515078      -0.1415844        0.1624032     0.007881637      -0.05099087     -0.01005922       0.02194091     0.001564121
                       0.1614183     0.005964626       -0.2521561       -0.140994        0.1643487     0.003991233      -0.05064913    -0.008411873
                      -0.0504009    -0.008259323        0.1643532     0.003995014       -0.2522597      -0.1411436        0.1618822     0.005731015
                        0.021878     0.001284556      -0.05112597    -0.009770405        0.1626497     0.007052031       -0.2494623      -0.1435409
5.7392                   -0.2486      -0.1364835         0.162761     0.005632266      -0.05134219     -0.00917076       0.02207928     0.001151438
                       0.1617202     0.003733456       -0.2492311      -0.1357732        0.1646579     0.001663132      -0.05096616    -0.007520325
                     -0.05070322    -0.007378937        0.1646625     0.001666936       -0.2493383      -0.1359207        0.1621993     0.003477398
                      0.02200443    0.0008750813      -0.05147333    -0.008876888        0.1629982     0.004791279       -0.2465331      -0.1384531
5.7408                -0.2456135      -0.1314151        0.1630777     0.003369701      -0.05167498    -0.008270986       0.02220865    0.0007334011
                       0.1619816     0.001491089       -0.2462216      -0.1305833        0.1649235   -0.0006777882      -0.05126447    -0.006618406
                     -0.05098725    -0.006488893        0.1649282   -0.0006739645       -0.2463323      -0.1307286        0.1624752     0.001211682
                      0.02212201    0.0004607486      -0.05180202    -0.007972106        0.1633052     0.002517445       -0.2435242       -0.133398
5.7424                -0.2425482      -0.1263808        0.1633528     0.001094847       -0.0519889    -0.007360357       0.02232883      0.00031023
                       0.1622022   -0.0007615956       -0.2431278       -0.125426         0.165145    -0.003030544      -0.05154371     -0.00570658
                      -0.0512527    -0.005589655        0.1651499    -0.003026702        -0.243242       -0.125569        0.1627093    -0.001065219
                      0.02223058    4.177151e-05      -0.05211167    -0.007056514        0.1635704    0.0002314474       -0.2404357      -0.1283772
5.744                 -0.2394046       -0.121382        0.1635859    -0.001191372      -0.05228358    -0.006439315       0.02243966   -0.0001178484
                       0.1623816    -0.003023705       -0.2399499       -0.120303         0.165322    -0.005394134      -0.05180359    -0.004785309
                     -0.05149928    -0.004681629         0.165327    -0.005390279       -0.2400674      -0.1204437        0.1629013     -0.00335238
                      0.02232999   -0.0003816312      -0.05240193    -0.006130582        0.1637933    -0.002065784        -0.237268      -0.1233921
5.7456                 -0.236183      -0.1164203        0.1637767    -0.003488022      -0.05255869    -0.005508337       0.02254095   -0.0005506017
                       0.1625194    -0.005294337       -0.2366882      -0.1152161        0.1654541    -0.007767546      -0.05204378    -0.003855051
                     -0.05172671    -0.003765309        0.1654593    -0.007763677        -0.236809      -0.1153541        0.1630508    -0.005648861
                      0.02242007   -0.0008092355      -0.05267247    -0.005194769        0.1639734    -0.004373303       -0.2340214      -0.1184444
5.7472                -0.2328837      -0.1114971        0.1639248    -0.005794154      -0.05281392    -0.004567862       0.02263256   -0.0009877918
                       0.1626155    -0.007572579       -0.2333427      -0.1101667         0.165541     -0.01014975      -0.05226399    -0.002916288
                     -0.05193475    -0.002841122        0.1655463     -0.01014587       -0.2334668      -0.1103022        0.1631575    -0.007953714
                      0.02250069    -0.001240813      -0.05292297    -0.004249542        0.1641106    -0.006690153       -0.2306964      -0.1135353
5.7488                -0.2295071       -0.106614        0.1640298    -0.008108808      -0.05304893    -0.003618425       0.02271432    -0.001429175
                       0.1626694    -0.009857508        -0.229914      -0.1051568        0.1655823     -0.01253971      -0.05246396    -0.001969513
                     -0.05212311    -0.001909543        0.1655877     -0.01253582       -0.2300413      -0.1052897         0.163221     -0.01026597
                      0.02257172     -0.00167613      -0.05315312    -0.003295442        0.1642043    -0.009015361        -0.227293      -0.1086667
5.7504                -0.2260537      -0.1017723        0.1640914     -0.01043101      -0.05326346      -0.0026605       0.02278607    -0.001874502
                        0.162681     -0.01214819       -0.2264024      -0.1001879        0.1655776     -0.01493636      -0.05264342    -0.001015239
                     -0.05229157   -0.0009710637        0.1655831     -0.01493247       -0.2265328      -0.1003181        0.1632412     -0.01258467
                      0.02263301    -0.002114948      -0.05336262    -0.002332908        0.1642543     -0.01134795        -0.223812      -0.1038399
5.752                 -0.2225239     -0.09697358        0.1641093     -0.01275978      -0.05345719    -0.001694593       0.02284769    -0.002323519
                       0.1626501      -0.0144437       -0.2228082     -0.09526186        0.1655267     -0.01733865       -0.0528021   -5.395058e-05
                     -0.05243991   -2.613686e-05        0.1655324     -0.01733476       -0.2229417      -0.0953891        0.1632177     -0.01490883
                      0.02268445    -0.002557026      -0.05355118    -0.001362491        0.1642603     -0.01368692       -0.2202538     -0.09905656
5.7536                -0.2189182     -0.09221931        0.1640832     -0.01509412      -0.05362987   -0.0007212345       0.02289902    -0.002775968
                       0.1625763     -0.01674307        -0.219132     -0.09038024        0.1654294     -0.01974551      -0.05293977    0.0009138327
                     -0.05256791    0.0009247286        0.1654352     -0.01974161       -0.2192685     -0.09050462        0.1631503     -0.01723745
                       0.0227259    -0.003002116      -0.05371854   -0.0003846999         0.164222     -0.01603127       -0.2166186     -0.09431808
5.7552                -0.2152372     -0.08751095        0.1640129     -0.01743302      -0.05378125    0.0002590867       0.02293995    -0.003231585
                       0.1624597     -0.01904535       -0.2153741     -0.08554487        0.1652853     -0.02215583       -0.0530562     0.001887572
                     -0.05267536     0.001881054        0.1652912     -0.02215194       -0.2155135     -0.08566614        0.1630388     -0.01956953
                      0.02275727    -0.003449968      -0.05386445    0.0005999216        0.1641393        -0.01838       -0.2129073     -0.08962597
5.7568                -0.2114813     -0.08284991        0.1638982     -0.01977548      -0.05391107     0.001245785       0.02297034    -0.003690101
                       0.1622998     -0.02134959       -0.2115351     -0.08075724        0.1650943     -0.02456855       -0.0531512     0.002866744
                     -0.05276209     0.002842328        0.1651004     -0.02456466       -0.2116774     -0.08087545         0.162883     -0.02190407
                      0.02277845    -0.003900328      -0.05398867     0.001590846        0.1640117     -0.02073207       -0.2091202     -0.08498186
5.7584                -0.2076513      -0.0782377        0.1637389     -0.02212048      -0.05401911     0.002238353       0.02299008    -0.004151244
                       0.1620968     -0.02365481       -0.2076157     -0.07601917        0.1648563     -0.02698254      -0.05322455     0.003850845
                     -0.05282791     0.003808022        0.1648624     -0.02697866       -0.2077606     -0.07613429        0.1626827     -0.02424006
                      0.02278933    -0.004352939      -0.05409097     0.002587512        0.1638393     -0.02308645        -0.205258     -0.08038718
5.76                  -0.2037475     -0.07367583        0.1635348     -0.02446699      -0.05410517     0.003236229       0.02299908    -0.004614738
                       0.1618504     -0.02596004       -0.2036163     -0.07133236         0.164571     -0.02939671      -0.05327608     0.004839263
                     -0.05287267     0.004777637        0.1645773     -0.02939284       -0.2037639     -0.07144423        0.1624379     -0.02657647
                      0.02278982    -0.004807538      -0.05417113     0.003589402        0.1636218     -0.02544212       -0.2013214     -0.07584336
5.7616                 -0.199771     -0.06916559        0.1632858     -0.02681396      -0.05416903     0.004238863       0.02299722    -0.005080304
                       0.1615605     -0.02826431       -0.1995375     -0.06669844        0.1642383     -0.03180993      -0.05330563     0.005831493
                     -0.05289622     0.005750658        0.1642448     -0.03180608       -0.1996878     -0.06680694        0.1621484     -0.02891228
                      0.02277984    -0.005263861      -0.05422898     0.004595926        0.1633591     -0.02779802       -0.1973109     -0.07135198
5.7632                -0.1957222     -0.06470843        0.1629918     -0.02916037      -0.05421054     0.005245666       0.02298442    -0.005547655
                       0.1612272     -0.03056664       -0.1953803     -0.06211903        0.1638582     -0.03422109      -0.05331304     0.006826972
                     -0.05289844     0.006726551        0.1638648     -0.03421725       -0.1955331     -0.06222412        0.1618141     -0.03124647
                      0.02275932     -0.00572164      -0.05426434       0.0056065         0.163051     -0.03015311       -0.1932273     -0.06691445
5.7648                -0.1916019     -0.06030582        0.1626526     -0.03150516      -0.05422951       0.0062561       0.02296059    -0.006016507
                       0.1608503     -0.03286603       -0.1911452     -0.05759583        0.1634307     -0.03662907      -0.05329816     0.007825135
                     -0.05287918      0.00770479        0.1634374     -0.03662525       -0.1913004     -0.05769744        0.1614349     -0.03357799
                      0.02272818    -0.006180606      -0.05427702     0.006620598        0.1626976     -0.03250634       -0.1890714     -0.06253231
5.7664                -0.1874108     -0.05595919        0.1622683      -0.0338473       -0.0542258     0.007269575       0.02292566     -0.00648657
                       0.1604299     -0.03516152        -0.186833     -0.05313041        0.1629556     -0.03903273       -0.0532609     0.008825409
                     -0.05283837     0.008684844        0.1629624     -0.03902893       -0.1869905     -0.05322852         0.161011      -0.0359058
                      0.02268635    -0.006640485      -0.05426689     0.007637585        0.1622987     -0.03485664       -0.1848439     -0.05820698
5.768                 -0.1831498     -0.05166981        0.1618388     -0.03618571      -0.05419928     0.008285506       0.02287956     -0.00695755
                       0.1599659      -0.0374521       -0.1824445      -0.0487245         0.162433     -0.04143095      -0.05320115     0.009827228
                      -0.0527759      0.00966618        0.1624399     -0.04142718       -0.1826043     -0.04881905        0.1605422     -0.03822887
                       0.0226338    -0.007101003      -0.05423383      0.00865691        0.1618544     -0.03720295       -0.1805455     -0.05393982
5.7696                -0.1788197     -0.04743916         0.161364     -0.03851935      -0.05414983     0.009303315       0.02282224    -0.007429149
                       0.1594585     -0.03973679       -0.1779806     -0.04437967        0.1618629     -0.04382258      -0.05311882      0.01083003
                     -0.05269171      0.01064825          0.16187     -0.04381884       -0.1781425     -0.04447059        0.1600286     -0.04054617
                      0.02257046    -0.007561883      -0.05417772     0.009677979        0.1613645     -0.03954421       -0.1761773     -0.04973237
5.7712                -0.1744213     -0.04326856        0.1608441     -0.04084717      -0.05407735      0.01032239       0.02275364    -0.007901073
                       0.1589076      -0.0420146       -0.1734422     -0.04009751        0.1612454      -0.0462065      -0.05301383      0.01183321
                     -0.05258572      0.01163049        0.1612526     -0.04620278       -0.1736062      -0.0401847        0.1594702     -0.04285663
                       0.0224963    -0.008022843      -0.05409846      0.01070018        0.1608292     -0.04187936       -0.1717399     -0.04558588
5.7728                -0.1699555     -0.03915941        0.1602791      -0.0431681      -0.05398177      0.01134218       0.02267372    -0.008373021
                       0.1583134     -0.04428453       -0.1688302     -0.03587966        0.1605806     -0.04858157      -0.05288612       0.0128362
                     -0.05245791       0.0126124        0.1605879     -0.04857788       -0.1689962     -0.03596309        0.1588672     -0.04515924
                      0.02241129    -0.008483605      -0.05399598      0.01172294        0.1602486     -0.04420733       -0.1672344     -0.04150199
5.7744                -0.1654232     -0.03511299         0.159669     -0.04548107      -0.05386301      0.01236204       0.02258246    -0.008844692
                        0.157676     -0.04654563       -0.1641456     -0.03172762        0.1598685     -0.05094665      -0.05273568      0.01383842
                     -0.05230822       0.0135934         0.159876       -0.050943       -0.1643134     -0.03180723        0.1582196     -0.04745293
                       0.0223154    -0.008943885       -0.0538702      0.01274564        0.1596227     -0.04652704       -0.1626617     -0.03748189
5.776                 -0.1608254     -0.03113062         0.159014     -0.04778505      -0.05372101       0.0133814       0.02247982     -0.00931578
                       0.1569955     -0.04879686       -0.1593893     -0.02764299        0.1591095     -0.05330062      -0.05256245      0.01483927
                     -0.05213665      0.01457295        0.1591171     -0.05329701       -0.1595589     -0.02771876        0.1575276     -0.04973667
                      0.02220862    -0.009403398      -0.05372109      0.01376766        0.1589516     -0.04883744       -0.1580227     -0.03352699
5.7776                -0.1561631     -0.02721358        0.1583142     -0.05007896      -0.05355576      0.01439965       0.02236579    -0.009785982
                       0.1562721     -0.05103727       -0.1545625     -0.02362728        0.1583036     -0.05564234      -0.05236646      0.01583819
                     -0.05194321      0.01555049        0.1583114     -0.05563878       -0.1547337     -0.02369913        0.1567914     -0.05200944
                      0.02209094    -0.009861864      -0.05354861      0.01478843        0.1582355     -0.05113746       -0.1533185     -0.02963869
5.7792                -0.1514372     -0.02336318        0.1575698     -0.05236177      -0.05336724      0.01541617       0.02224037     -0.01025499
                        0.155506     -0.05326588       -0.1496663     -0.01968201        0.1574511     -0.05797069      -0.05214769      0.01683457
                      -0.0517279      0.01652547         0.157459     -0.05796716        -0.149839      -0.0197499        0.1560111     -0.05427019
                      0.02196235     -0.01031899      -0.05335277      0.01580732        0.1574746     -0.05342603       -0.1485501     -0.02581825
5.7808                -0.1466489     -0.01958071         0.156781      -0.0546324      -0.05315545      0.01643038       0.02210355      -0.0107225
                       0.1546974     -0.05548169       -0.1447017     -0.01580868        0.1565522     -0.06028453      -0.05190617      0.01782783
                     -0.05149076      0.01749735        0.1565602     -0.06028106       -0.1448759     -0.01587256         0.155187     -0.05651787
                      0.02182288      -0.0107745      -0.05313355      0.01682371        0.1566691     -0.05570211       -0.1437185       -0.022067
5.7824                -0.1417991     -0.01586737        0.1559481     -0.05688981      -0.05292041      0.01744163       0.02195535     -0.01118821
                       0.1538466     -0.05768375       -0.1396699     -0.01200875        0.1556071     -0.06258277      -0.05164197      0.01881735
                     -0.05123182      0.01846556        0.1556153     -0.06257934       -0.1398454     -0.01206861        0.1543193     -0.05875148
                      0.02167252     -0.01122811      -0.05289099      0.01783702        0.1558191     -0.05796463       -0.1388249     -0.01838621
5.784                  -0.136889     -0.01222442        0.1550711     -0.05913297      -0.05266216      0.01844936        0.0217958     -0.01165181
                       0.1529538     -0.05987109       -0.1345722    -0.008283676        0.1546164     -0.06486428      -0.05135513       0.0198026
                     -0.05095115      0.01942958        0.1546247     -0.06486092        -0.134749     -0.00833948        0.1534083        -0.06097
                      0.02151131     -0.01167951      -0.05262513       0.0188466         0.154925     -0.06021255       -0.1338705     -0.01477721
5.7856                -0.1319197    -0.008653018        0.1541505     -0.06136082      -0.05238074      0.01945293       0.02162491     -0.01211298
                       0.1520193     -0.06204275       -0.1294097    -0.004634904        0.1535801     -0.06712797      -0.05104572      0.02078296
                     -0.05064882      0.02038881        0.1535886     -0.06712466       -0.1295876    -0.004686578        0.1524543     -0.06317241
                      0.02133928     -0.01212844      -0.05233602      0.01985186        0.1539871     -0.06244481       -0.1288563     -0.01124115
5.7872                -0.1268924    -0.005154358        0.1531866     -0.06357234      -0.05207624      0.02045176       0.02144272     -0.01257143
                       0.1510434     -0.06419775       -0.1241838    -0.001063768        0.1524988     -0.06937272      -0.05071385      0.02175783
                     -0.05032493      0.02134277        0.1525074     -0.06936947       -0.1243627    -0.001111376        0.1514576     -0.06535769
                      0.02115647     -0.01257461      -0.05202375       0.0208522        0.1530056     -0.06466039       -0.1237836    -0.007779294
5.7888                -0.1218082     -0.00172959        0.1521797     -0.06576652      -0.05174875      0.02144521       0.02124929     -0.01302685
                       0.1500265     -0.06633518       -0.1188958     0.002428291        0.1513728     -0.07159746      -0.05035963      0.02272666
                     -0.04997957      0.02229086        0.1513815     -0.07159428       -0.1190756     0.002384844        0.1504187     -0.06752487
                      0.02096292     -0.01301772      -0.05168839      0.02184702        0.1519809     -0.06685825       -0.1186535    -0.004392855
5.7904                -0.1166684     0.001620124        0.1511301     -0.06794234      -0.05139837      0.02243271       0.02104467     -0.01347893
                        0.148969     -0.06845407        -0.113547     0.005839919        0.1502026     -0.07380112      -0.04998318      0.02368884
                     -0.04961287      0.02323253        0.1502114     -0.07379799       -0.1137276     0.005800685        0.1493378     -0.06967293
                       0.0207587      -0.0134575      -0.05133009      0.02283568        0.1509134     -0.06903738       -0.1134674     -0.00108294
5.792                 -0.1114741      0.00489372        0.1500382     -0.07009877      -0.05102521      0.02341365       0.02082892     -0.01392736
                       0.1478712     -0.07055352       -0.1081388      0.00916987        0.1489885     -0.07598262      -0.04958464      0.02464379
                     -0.04922497      0.02416728        0.1489975     -0.07597956         -0.10832     0.009134817        0.1482154     -0.07180091
                      0.02054386     -0.01389367      -0.05094894      0.02381759        0.1498036     -0.07119675       -0.1082266     0.002149242
5.7936                -0.1062268     0.008090074        0.1489045     -0.07223484      -0.05062943      0.02438743       0.02060212     -0.01437186
                       0.1467335     -0.07263257       -0.1026726      0.01241681        0.1477312     -0.07814091      -0.04916417      0.02559097
                     -0.04881602      0.02509452        0.1477403     -0.07813791       -0.1028544      0.01238596        0.1470519     -0.07390781
                      0.02031848     -0.01432593      -0.05054512      0.02479216        0.1486517     -0.07333536       -0.1029323     0.005302571
5.7952                -0.1009275      0.01120817        0.1477294     -0.07434954      -0.05021119      0.02535344       0.02036435     -0.01481211
                       0.1455564     -0.07469034      -0.09714986      0.01557949        0.1464311     -0.08027492      -0.04872195      0.02652977
                     -0.04838617      0.02601378        0.1464403     -0.08027202      -0.09733213      0.01555285        0.1458477      -0.0759927
                      0.02008265     -0.01475402      -0.05011877      0.02575878        0.1474583     -0.07545222      -0.09758587        0.008376
5.7968               -0.09557773      0.01424692        0.1465134     -0.07644189      -0.04977067      0.02631112       0.02011569     -0.01524781
                       0.1443404     -0.07672594      -0.09157208      0.01865667        0.1450888     -0.08238368      -0.04825817      0.02745965
                     -0.04793561      0.02692448        0.1450981     -0.08238083      -0.09175469      0.01863425        0.1446035     -0.07805462
                      0.01983644     -0.01517765      -0.04967008      0.02671687        0.1462238     -0.07754638      -0.09218867      0.01136843
5.7984               -0.09017874      0.01720539        0.1452569     -0.07851095      -0.04930804      0.02725986       0.01985627     -0.01567867
                       0.1430858     -0.07873844      -0.08594073      0.02164718        0.1437048     -0.08446612      -0.04777304      0.02838004
                     -0.04746454       0.0278261        0.1437143     -0.08446336      -0.08612359      0.02162899        0.1433196     -0.08009262
                      0.01957995     -0.01559655      -0.04919924      0.02766584        0.1449488     -0.07961681      -0.08674212      0.01427885
5.8                  -0.08473188      0.02008253        0.1439606     -0.08055575      -0.04882352       0.0281991       0.01958617      -0.0161044
                       0.1417933     -0.08072697      -0.08025742      0.02454982        0.1422797     -0.08652125      -0.04726679      0.02929038
                     -0.04697317      0.02871812        0.1422893     -0.08651856      -0.08044037      0.02453588        0.1419967     -0.08210579
                      0.01931329     -0.01601044      -0.04870646      0.02860509        0.1436338     -0.08166261      -0.08124759      0.01710624
5.8016               -0.07923857      0.02287742        0.1426249     -0.08257538      -0.04831735      0.02912823       0.01930552      -0.0165247
                       0.1404634     -0.08269072      -0.07452367      0.02736348        0.1408142     -0.08854809      -0.04673965      0.03019013
                     -0.04646171      0.02960004         0.140824      -0.0885455      -0.07470663      0.02735378        0.1406352     -0.08409321
                      0.01903658     -0.01641905      -0.04819201      0.02953404        0.1422794     -0.08368279      -0.07570656      0.01984962
5.8032               -0.07370022      0.02558913        0.1412504     -0.08456887      -0.04778975      0.03004671       0.01901444     -0.01693928
                       0.1390967     -0.08462876      -0.06874111      0.03008709         0.139309     -0.09054567      -0.04619189      0.03107872
                      -0.0459304      0.03047134        0.1393189     -0.09054317      -0.06892395      0.03008161        0.1392358       -0.086054
                      0.01874992     -0.01682212      -0.04765609      0.03045217         0.140886     -0.08567645      -0.07012044      0.02250803
5.8048               -0.06811821      0.02821682        0.1398378     -0.08653534      -0.04724099      0.03095398       0.01871308     -0.01734786
                       0.1376936     -0.08654031      -0.06291136      0.03271955        0.1377646     -0.09251303      -0.04562376      0.03195565
                     -0.04537949      0.03133152        0.1377746     -0.09251062      -0.06309397      0.03271829        0.1377991     -0.08798727
                      0.01845344     -0.01721938      -0.04709898      0.03135885        0.1394544     -0.08764268      -0.06449077      0.02508059
5.8064               -0.06249402      0.03075955        0.1383875      -0.0884739      -0.04667135      0.03184947       0.01840156     -0.01775016
                       0.1362548     -0.08842453      -0.05703606      0.03525988        0.1361819     -0.09444925      -0.04503556      0.03282037
                     -0.04480928      0.03218007         0.136192     -0.09444693      -0.05721835      0.03526283        0.1363257     -0.08989213
                      0.01814729     -0.01761056      -0.04652097      0.03225357        0.1379852     -0.08958057      -0.05881903      0.02756639
5.808                -0.05682912      0.03321655        0.1369004     -0.09038365      -0.04608113      0.03273261       0.01808004      -0.0181459
                       0.1347809     -0.09028061      -0.05111694      0.03770707        0.1345615      -0.0963534      -0.04442758      0.03367237
                     -0.04421998      0.03301651        0.1345718     -0.09635118      -0.05129876      0.03771422        0.1348162     -0.09176779
                       0.0178316     -0.01799542      -0.04592235      0.03313576        0.1364791     -0.09148926      -0.05310676      0.02996458
5.8096               -0.05112502      0.03558697         0.135377     -0.09226374       -0.0454706      0.03360292       0.01774869      -0.0185348
                       0.1332726     -0.09210774      -0.04515567      0.04006016        0.1329042      -0.0982246      -0.04380015      0.03451112
                     -0.04361197      0.03384036        0.1329146     -0.09822247      -0.04533695      0.04007148        0.1332714     -0.09361336
                      0.01750652     -0.01837368      -0.04530344      0.03400488        0.1349366     -0.09336787      -0.04735547      0.03227438
5.8112                -0.0453832      0.03787007        0.1338181     -0.09411334      -0.04484012      0.03445983       0.01740767     -0.01891661
                       0.1317305     -0.09390516      -0.03915402      0.04231825        0.1312108       -0.100062      -0.04315358      0.03533613
                     -0.04298548      0.03465113        0.1312214      -0.1000599       -0.0393346      0.04233374        0.1316919     -0.09542806
                      0.01717221     -0.01874511      -0.04466457       0.0348604        0.1333586     -0.09521554      -0.04156677      0.03449495
5.8128               -0.03960516      0.04006511        0.1322244     -0.09593161      -0.04419002       0.0353028       0.01705715     -0.01929103
                       0.1301553     -0.09567213      -0.03311369      0.04448049        0.1294822      -0.1018646      -0.04248825      0.03614689
                     -0.04234087      0.03544837        0.1294928      -0.1018627      -0.03329352      0.04450011        0.1300785     -0.09721108
                      0.01682884     -0.01910946      -0.04400606       0.0357018        0.1317457     -0.09703147      -0.03574226      0.03662557
5.8144               -0.03379248      0.04217138        0.1305966     -0.09771773      -0.04352063      0.03613135       0.01669732     -0.01965784
                       0.1285476     -0.09740788      -0.02703653      0.04654603         0.127719      -0.1036318      -0.04180449      0.03694294
                     -0.04167847       0.0362316        0.1277298        -0.10363      -0.02721545      0.04656976         0.128432     -0.09896165
                      0.01647657     -0.01946647      -0.04332829      0.03652854        0.1300987     -0.09881484       -0.0298835      0.03866552
5.816                -0.02794671      0.04418821        0.1289354     -0.09947095      -0.04283236      0.03694496       0.01632836     -0.02001675
                       0.1269083      -0.0991117       -0.0209243      0.04851409        0.1259222      -0.1053626      -0.04110267      0.03772378
                      -0.0409986       0.0370004        0.1259331      -0.1053609       -0.0211022       0.0485419        0.1267529       -0.100679
                      0.01611557     -0.01981592      -0.04263163      0.03734017        0.1284184      -0.1005649      -0.02399213      0.04061412
5.8176               -0.02206942      0.04611496        0.1272417      -0.1011905      -0.04212555      0.03774315       0.01595048     -0.02036753
                       0.1252381      -0.1007829      -0.01477882      0.05038392        0.1240927      -0.1070563       -0.0403832      0.03848894
                     -0.04030164       0.0377543        0.1241037      -0.1070547      -0.01495561      0.05041577        0.1250423      -0.1023624
                      0.01574605     -0.02015757      -0.04191646      0.03813616        0.1267055      -0.1022808       -0.0180698      0.04247072
5.8192                -0.0161622      0.04795102        0.1255162      -0.1028756      -0.04140062      0.03852542       0.01556388     -0.02070994
                       0.1235375      -0.1024207      -0.00860193      0.05215481        0.1222313      -0.1087121      -0.03964647      0.03923799
                     -0.03958796      0.03849289        0.1222424      -0.1087106     -0.008777511      0.05219066        0.1233007      -0.1040112
                      0.01536818      -0.0204912      -0.04118318      0.03891603        0.1249609      -0.1039619      -0.01211816      0.04423471
5.8208               -0.01022667      0.04969582        0.1237598      -0.1045256      -0.04065798      0.03929132       0.01516878     -0.02104373
                       0.1218076      -0.1040246     -0.002395508       0.0538261         0.120339      -0.1103292      -0.03889286      0.03997047
                     -0.03885793      0.03921574        0.1203502      -0.1103279     -0.002569761      0.05386592        0.1215291      -0.1056246
                      0.01498217     -0.02081658      -0.04043224      0.03967929        0.1231854      -0.1056073     -0.006138859      0.04590552
5.8224              -0.004264405      0.05134882        0.1219733      -0.1061397      -0.03989804      0.04004037       0.01476539     -0.02136867
                        0.120049      -0.1055938      0.003838581      0.05539716        0.1184167      -0.1119071      -0.03812286      0.04068594
                     -0.03811197      0.03992244         0.118428      -0.1119058      0.003665757       0.0554409        0.1197284      -0.1072019
                      0.01458822     -0.02113348      -0.03966402      0.04042553        0.1213799      -0.1072166    -0.0001336057      0.04748262
5.824                0.001722936      0.05290954        0.1201575      -0.1077172      -0.03912125      0.04077214       0.01435393     -0.02168453
                       0.1182626      -0.1071277       0.01009846      0.05686742        0.1164653      -0.1134448      -0.03733684        0.041384
                     -0.03735042       0.0406126        0.1164768      -0.1134437      0.009927148      0.05691504        0.1178992      -0.1087426
                      0.01418654     -0.02144171        -0.038879      0.04115426        0.1195451      -0.1087888      0.005895921       0.0489655
5.8256               0.007733712      0.05437749        0.1183134      -0.1092576      -0.03832803      0.04148619       0.01393465      -0.0219911
                       0.1164491      -0.1086258       0.01638219      0.05823635        0.1144859      -0.1149419      -0.03653529      0.04206425
                     -0.03657377      0.04128582        0.1144974       -0.114941       0.01621252      0.05828778        0.1160427       -0.110246
                      0.01377734     -0.02174105       -0.0380776      0.04186508        0.1176821      -0.1103234       0.01194802      0.05035371
5.8272                 0.0137663      0.05575223        0.1164418      -0.1107602       -0.0375189      0.04218209       0.01350778     -0.02228815
                       0.1146094      -0.1100874       0.02268788      0.05950344        0.1124794      -0.1163977      -0.03571866      0.04272627
                     -0.03578239      0.04194172         0.112491      -0.1163969       0.02251995      0.05955866        0.1141595      -0.1117114
                      0.01336085      -0.0220313      -0.03726032      0.04255754        0.1157916      -0.1118198       0.01802097      0.05164681
5.8288                0.01981903      0.05703338        0.1145436      -0.1122243      -0.03669427      0.04285944       0.01307357     -0.02257549
                       0.1127444       -0.111512       0.02901361      0.06066826        0.1104467      -0.1178115      -0.03488742      0.04336967
                     -0.03497674      0.04257995        0.1104585      -0.1178108        0.0288475       0.0607272        0.1122507      -0.1131384
                      0.01293731     -0.02231227      -0.03642763      0.04323125        0.1138747      -0.1132774       0.02411302      0.05284442
5.8304                0.02589021      0.05822058        0.1126198      -0.1136495      -0.03585467      0.04351785       0.01263227     -0.02285292
                       0.1108549       -0.112899       0.03535741      0.06173041        0.1083891      -0.1191828      -0.03404202      0.04399412
                     -0.03415728      0.04320015         0.108401      -0.1191822       0.03519322      0.06179301        0.1103171      -0.1145263
                      0.01250693     -0.02258377      -0.03558002      0.04388581        0.1119322      -0.1146955       0.03022247       0.0539462
5.832                 0.03197817      0.05931349        0.1106713       -0.115035      -0.03500056      0.04415693       0.01218414     -0.02312024
                       0.1089418      -0.1142479       0.04171732      0.06268953        0.1063074       -0.120511        -0.033183      0.04459924
                     -0.03332445      0.04380197        0.1063194      -0.1205106       0.04155516      0.06275573        0.1083597      -0.1158746
                      0.01206996     -0.02284561      -0.03471798      0.04452084        0.1099652      -0.1160736       0.03634757      0.05495182
5.8336                0.03808125      0.06031184         0.108699      -0.1163805      -0.03413247      0.04477631       0.01172943     -0.02337727
                       0.1070059      -0.1155583       0.04809143       0.0635453        0.1042027      -0.1217956      -0.03231084       0.0451847
                     -0.03247869      0.04438509        0.1042148      -0.1217953       0.04793137      0.06361505        0.1063794      -0.1171829
                      0.01162665     -0.02309764      -0.03384202      0.04513599        0.1079745      -0.1174112       0.04248655      0.05586104
5.8352                0.04419776      0.06121537        0.1067039      -0.1176853      -0.03325092      0.04537565       0.01126843     -0.02362382
                       0.1050483      -0.1168295       0.05447772      0.06429747        0.1020762      -0.1230361      -0.03142607      0.04575015
                     -0.03162049       0.0449492        0.1020884      -0.1230359       0.05431987      0.06437069        0.1043771      -0.1184505
                      0.01117724     -0.02333966      -0.03295268      0.04573088        0.1059611      -0.1187077       0.04863768      0.05667361
5.8368                  0.050326      0.06202386        0.1046871      -0.1189491      -0.03235644       0.0459546       0.01080139     -0.02385973
                       0.1030697      -0.1180613       0.06087423      0.06494581       0.09992882       -0.124232      -0.03052916       0.0462953
                     -0.03075037      0.04549398       0.09994107       -0.124232       0.06071866      0.06502244        0.1023539      -0.1196771
                      0.01072199     -0.02357152      -0.03205049       0.0463052        0.1039261      -0.1199628        0.0547992      0.05738934
5.8384                0.05646425      0.06273714        0.1026494      -0.1201713      -0.03144953      0.04651285       0.01032861     -0.02408485
                       0.1010712      -0.1192532         0.067279      0.06549016       0.09776167      -0.1253829       -0.0296207      0.04681985
                     -0.02986877      0.04601916       0.09777405       -0.125383       0.06712581      0.06557012        0.1003107      -0.1208623
                      0.01026114     -0.02379308        -0.031136      0.04685862        0.1018704      -0.1211759       0.06096933      0.05800807
5.84                  0.06261083      0.06335506        0.1005918      -0.1213515      -0.03053079      0.04705008      0.009850364       -0.024299
                      0.09905356      -0.1204047       0.07369001      0.06593039       0.09557593      -0.1264884      -0.02870117      0.04732351
                      -0.0289762      0.04652444       0.09558839      -0.1264886       0.07353929       0.0660136       0.09824856      -0.1220056
                     0.009794984     -0.02400417      -0.03020973      0.04739083       0.09979509      -0.1223466        0.0671463       0.0585297
5.8416                0.06876404      0.06387752        0.0985155      -0.1224894      -0.02960072      0.04756602      0.009366938     -0.02450205
                      0.09701782      -0.1215155       0.08010532       0.0662664       0.09337263       -0.127548      -0.02777116      0.04780602
                     -0.02807318      0.04700958       0.09338515      -0.1275484       0.07995716      0.06635281       0.09616839      -0.1231066
                     0.009323774     -0.02420466      -0.02927225      0.04790155       0.09770111      -0.1234746       0.07332835      0.05895413
5.8432                0.07492217      0.06430445       0.09642137      -0.1235845      -0.02865992      0.04806038       0.00887863     -0.02469386
                      0.09496494      -0.1225852       0.08652291      0.06649819       0.09115292      -0.1285615       -0.0268312      0.04826713
                      -0.0271602      0.04747432       0.09116556      -0.1285621       0.08637735      0.06658769       0.09407125      -0.1241651
                      0.00884778     -0.02439442      -0.02832415       0.0483905       0.09558953      -0.1245594       0.07951372      0.05928135
5.8448                0.08108349      0.06463582       0.09431047      -0.1246365      -0.02770893      0.04853289      0.008385724      -0.0248743
                      0.09289584      -0.1236135        0.0929408      0.06662574       0.08891794      -0.1295286      -0.02588186      0.04870659
                     -0.02623781      0.04791843       0.08893067      -0.1295293       0.09279794      0.06671828       0.09195816      -0.1251806
                     0.008367277     -0.02457332      -0.02736598      0.04885745       0.09346139      -0.1256007       0.08570064      0.05951135
5.8464                0.08724633      0.06487163       0.09218385      -0.1256451      -0.02674836      0.04898335       0.00788853     -0.02504325
                      0.09081154      -0.1246002       0.09935703      0.06664912       0.08666881      -0.1304488      -0.02492368      0.04912419
                     -0.02530651      0.04834168        0.0866816      -0.1304497       0.09921694       0.0667446       0.08983008      -0.1261529
                     0.007882543     -0.02474125      -0.02639834      0.04930212       0.09131774      -0.1265982       0.09188734      0.05964418
5.848                 0.09340896      0.06501194       0.09004256        -0.12661      -0.02577876      0.04941149      0.007387349      -0.0252006
                      0.08871292      -0.1255448        0.1057696      0.06656846       0.08440667      -0.1313221      -0.02395724      0.04951974
                     -0.02436681      0.04874389       0.08441953      -0.1313231        0.1056323      0.06666678       0.08768811      -0.1270817
                     0.007393863     -0.02489809       -0.0254218      0.04972432        0.0891596      -0.1275516       0.09807204      0.05967993
5.8496                0.09956969      0.06505681       0.08788764      -0.1275309      -0.02480072      0.04981712      0.006882488     -0.02534625
                      0.08660104      -0.1264472        0.1121765      0.06638386       0.08213266      -0.1321481      -0.02298312      0.04989303
                      -0.0234193      0.04912484       0.08214561      -0.1321493        0.1120422      0.06648497       0.08553328      -0.1279668
                     0.006901513     -0.02504375      -0.02443696      0.05012384       0.08698808      -0.1284607         0.104253       0.0596187
5.8512                 0.1057268      0.06500637       0.08572013      -0.1284076      -0.02381485      0.05020004      0.006374253     -0.02548009
                      0.08447685      -0.1273072        0.1185758      0.06609556       0.07984796      -0.1329267      -0.02200191      0.05024389
                     -0.02246447      0.04948437       0.07986099       -0.132928        0.1184444      0.06619935       0.08336657      -0.1288079
                      0.00640579     -0.02517812      -0.02344441      0.05050047       0.08480421      -0.1293252        0.1104284      0.05946067
5.8528                 0.1118787      0.06486076       0.08354112        -0.12924      -0.02282176      0.05056009       0.00586295     -0.02560204
                      0.08234134      -0.1281245        0.1249655      0.06570379       0.07755371      -0.1336576      -0.02101415      0.05057219
                     -0.02150291      0.04982232       0.07756677      -0.1336592        0.1248372      0.06581017       0.08118912      -0.1296049
                     0.005906977     -0.02530113      -0.02244476      0.05085406       0.08260909       -0.130145        0.1165966      0.05920601
5.8544                 0.1180235      0.06462018       0.08135165      -0.1300277      -0.02182202      0.05089711      0.005348904     -0.02571204
                      0.08019552       -0.128899        0.1313436      0.06520883       0.07525103      -0.1343409      -0.02002049      0.05087776
                     -0.02053512      0.05013854       0.07526419      -0.1343426        0.1312184      0.06531774        0.0790019      -0.1303576
                     0.005405379     -0.02541269      -0.02143862      0.05118446       0.08040375      -0.1309198        0.1227558      0.05885499
5.856                  0.1241597      0.06428486       0.07915277      -0.1307707      -0.02081625      0.05121095      0.004832428        -0.02581
                      0.07804038      -0.1296304        0.1377083      0.06461104       0.07294109      -0.1349763      -0.01902149       0.0511605
                      -0.0195617      0.05043289       0.07295433      -0.1349781        0.1375863      0.06472234       0.07680594      -0.1310659
                      0.00490128     -0.02551274      -0.02042659      0.05149152       0.07818932      -0.1316495        0.1289043      0.05840788
5.8576                 0.1302855      0.06385505       0.07694563      -0.1314689      -0.01980506      0.05150149      0.004313842     -0.02589587
                      0.07587689      -0.1303188        0.1440575      0.06391076       0.07062512      -0.1355638      -0.01801774      0.05142029
                     -0.01858316      0.05070528       0.07063839      -0.1355658        0.1439387      0.06402439       0.07460241      -0.1317296
                     0.004394976     -0.02560121      -0.01940931      0.05177512       0.07596684       -0.132334        0.1350402      0.05786498
5.8592                 0.1363993      0.06333106       0.07473119      -0.1321221      -0.01878906      0.05176864       0.00379345     -0.02596961
                      0.07370608      -0.1309639        0.1503894      0.06310846       0.06830418      -0.1361034      -0.01700983      0.05165705
                      -0.0176001      0.05095558       0.06831755      -0.1361056        0.1502739       0.0632243       0.07239225      -0.1323488
                     0.003886767     -0.02567805      -0.01838736      0.05203517       0.07373742      -0.1329733         0.141162      0.05722665
5.8608                 0.1424994      0.06271322       0.07251061      -0.1327303      -0.01776887       0.0520123       0.00327159     -0.02603117
                      0.07152894      -0.1315657         0.156702      0.06220457       0.06597952      -0.1365951      -0.01599837      0.05187072
                     -0.01661304      0.05118373       0.06599291      -0.1365974        0.1565897      0.06232255       0.07017656      -0.1329233
                     0.003376957     -0.02574322       -0.0173614      0.05227158       0.07150209      -0.1335672        0.1472679      0.05649329
5.8624                 0.1485842       0.0620019       0.07028491      -0.1332935      -0.01674509       0.0522324      0.002748583     -0.02608052
                      0.06934647      -0.1321242        0.1629933      0.06119963       0.06365222      -0.1370388      -0.01498396      0.05206123
                     -0.01562257      0.05138965       0.06366567      -0.1370413        0.1628845      0.06131962       0.06795637      -0.1334531
                     0.002865836     -0.02579668      -0.01633201       0.0524843       0.06926197      -0.1341157        0.1533561      0.05566531
5.864                  0.1546521       0.0611975       0.06805517      -0.1338117      -0.01571838       0.0524289      0.002224737     -0.02611764
                      0.06715971      -0.1326394        0.1692616      0.06009419       0.06132346      -0.1374346       -0.0139672      0.05222856
                     -0.01462924      0.05157328       0.06133698      -0.1374373        0.1691562       0.0602161       0.06573278      -0.1339383
                     0.002353719      -0.0258384      -0.01529984      0.05267326       0.06701811       -0.134619        0.1594251      0.05474319
5.8656                 0.1607013      0.06030047       0.06582246      -0.1342848       -0.0146893      0.05260175      0.001700385     -0.02614251
                      0.06496955      -0.1331112         0.175505      0.05888886       0.05899442      -0.1377827      -0.01294868      0.05237266
                     -0.01363364      0.05173459       0.05900798      -0.1377856         0.175403      0.05901258       0.06350678      -0.1343788
                     0.001840894     -0.02586836       -0.0142655      0.05283845       0.06477164      -0.1350768        0.1654731      0.05372743
5.8672                 0.1667303      0.05931129       0.06358785       -0.134713      -0.01365849      0.05275094       0.00117585     -0.02615513
                      0.06277714      -0.1335396        0.1817215      0.05758425       0.05666615      -0.1380832        -0.011929      0.05249356
                     -0.01263629      0.05187356       0.05667979      -0.1380862         0.181623      0.05770971       0.06127941      -0.1347748
                     0.001327679     -0.02588656       -0.0132296      0.05297985       0.06252354      -0.1354895        0.1714985      0.05261856
5.8688                 0.1727374      0.05823045       0.06135237      -0.1350963       -0.0126266      0.05287648     0.0006514522     -0.02615552
                      0.06058327      -0.1339248        0.1879094      0.05618108       0.05433989      -0.1383362      -0.01090877      0.05259126
                     -0.01163779      0.05199017       0.05435355      -0.1383394        0.1878143      0.05630815       0.05905178      -0.1351262
                    0.0008143563     -0.02589298      -0.01219279      0.05309746       0.06027497      -0.1358569        0.1774997      0.05141717
5.8704                 0.1787212      0.05705851       0.05911714      -0.1354349      -0.01159421      0.05297839     0.0001275121     -0.02614369
                      0.05838917      -0.1342668        0.1940668      0.05468006       0.05201676      -0.1385418     -0.009888572      0.05266579
                     -0.01063868      0.05208445       0.05203046      -0.1385452        0.1939753      0.05480865        0.0568249      -0.1354334
                    0.0003012546     -0.02588763      -0.01115568      0.05319132        0.0580269      -0.1361793        0.1834749      0.05012386
5.872                  0.1846799      0.05579603        0.0568831      -0.1357288      -0.01056193      0.05305669    -0.0003956502     -0.02611965
                      0.05619561      -0.1345657        0.2001919      0.05308197       0.04969783      -0.1387003     -0.008869019      0.05271721
                    -0.009639531       0.0521564       0.04971156      -0.1387039         0.200104      0.05321197       0.05459972      -0.1356963
                   -0.0002113486     -0.02587054      -0.01011887      0.05326147       0.05578049      -0.1364569        0.1894226      0.04873927
5.8736                 0.1906121      0.05444364        0.0546514      -0.1359783     -0.009530406      0.05311145    -0.0009177099     -0.02608345
                      0.05400374      -0.1348216         0.206283      0.05138762       0.04738425       -0.138812     -0.007850698      0.05274556
                    -0.008640918      0.05220608       0.04739804      -0.1388157        0.2061987      0.05151893       0.05237735      -0.1359152
                    -0.000723133     -0.02584171     -0.009082982      0.05330796        0.0535367      -0.1366896        0.1953412      0.04726408
5.8752                 0.1965162      0.05300197       0.05242303      -0.1361834     -0.008500206      0.05314273      -0.00143835     -0.02603512
                      0.05181447      -0.1350348        0.2123383      0.04959786       0.04507717      -0.1388771     -0.006834182      0.05275093
                    -0.007643385      0.05223353       0.04509095       -0.138881        0.2122576      0.04973036       0.05015881      -0.1360903
                     -0.00123381     -0.02580119     -0.008048637      0.05333087        0.0512966      -0.1368779        0.2012291      0.04569902
5.8768                 0.2023906       0.0514717       0.05019901      -0.1363445     -0.007471959      0.05315064     -0.001957254     -0.02597472
                      0.04962872      -0.1352053         0.218356      0.04771358       0.04277757      -0.1388959     -0.005820077      0.05273344
                      -0.0066475      0.05223883       0.04279141         -0.1389        0.2182789      0.04784718       0.04794506      -0.1362217
                    -0.001743074     -0.02574901     -0.007016441      0.05333029       0.04906123      -0.1370218        0.2070848      0.04404482
5.8784                 0.2082339      0.04985354        0.0479804      -0.1364619     -0.006446287      0.05313527     -0.002474103     -0.02590232
                      0.04744752      -0.1353334        0.2243345      0.04573569       0.04048664      -0.1388687     -0.004808962      0.05269318
                    -0.005653806      0.05222206        0.0405005       -0.138873        0.2242611      0.04587028       0.04573713      -0.1363098
                    -0.002250632     -0.02568522     -0.005987007      0.05330635       0.04683163      -0.1371218        0.2129067      0.04230227
5.88                   0.2140446      0.04814823       0.04576814      -0.1365356     -0.005423755      0.05309675     -0.002988591     -0.02581797
                      0.04527178      -0.1354193        0.2302721      0.04366519       0.03820543      -0.1387959     -0.003801409       0.0526303
                    -0.004662839      0.05218333       0.03821933      -0.1388004        0.2302023      0.04380066       0.04353599      -0.1363548
                    -0.002756188     -0.02560988     -0.004960913      0.05325916       0.04460882      -0.1371779        0.2186933      0.04047218
5.8816                 0.2198212      0.04635653       0.04356334      -0.1365662     -0.004404961      0.05303521     -0.003500402     -0.02572177
                      0.04310248      -0.1354633         0.236167      0.04150304       0.03593497      -0.1386779     -0.002797988      0.05254493
                    -0.003675182      0.05212275       0.03594887      -0.1386826         0.236101       0.0416393       0.04134267      -0.1363571
                    -0.003259434     -0.02552305     -0.003938774      0.05318889       0.04239378      -0.1371906        0.2244431      0.03855539
5.8832                 0.2255622      0.04447925       0.04136688      -0.1365538       -0.0033905      0.05295082     -0.004009238      -0.0256138
                      0.04094056      -0.1354657        0.2420179      0.03925031       0.03367635      -0.1385151     -0.001799287      0.05243723
                    -0.002691351      0.05204044       0.03369025        -0.13852        0.2419554      0.03938725       0.03915806      -0.1363168
                    -0.003760091      -0.0254248     -0.002921198      0.05309567       0.04018751      -0.1371602        0.2301547      0.03655278
5.8848                 0.2312661      0.04251721       0.03917975      -0.1364989     -0.002380958      0.05284375     -0.004514776     -0.02549415
                      0.03878695      -0.1354267        0.2478228      0.03690807       0.03143056       -0.138308    -0.0008058494      0.05230739
                    -0.001711895      0.05193654       0.03144446       -0.138313        0.2477641      0.03704557       0.03698324      -0.1362345
                    -0.004257862     -0.02531521     -0.001908725       0.0529797       0.03799102      -0.1370871        0.2358265      0.03446525
5.8864                 0.2369317      0.04047127       0.03700297      -0.1364018     -0.001376916      0.05271419     -0.005016723     -0.02536293
                      0.03664251      -0.1353466        0.2535804      0.03447743       0.02919865      -0.1380569     0.0001817617      0.05215561
                   -0.0007373464      0.05181125       0.02921258      -0.1380622        0.2535254      0.03461539       0.03481903      -0.1361104
                    -0.004752466     -0.02519438    -0.0009019622      0.05284119       0.03580521      -0.1369716        0.2414573      0.03229374
5.888                  0.2425575      0.03834233       0.03483744       -0.136263     -0.000378935      0.05256235     -0.005514788     -0.02522026
                      0.03450827      -0.1352259        0.2592891      0.03195952       0.02698161      -0.1377625      0.001162991      0.05198208
                    0.0002317693      0.05166471       0.02699557      -0.1377679        0.2592377      0.03209785       0.03266641      -0.1359451
                    -0.005243611     -0.02506239     9.854131e-05      0.05268032       0.03363109      -0.1368141        0.2470454      0.03003922
5.8896                 0.2481421      0.03613129       0.03268418      -0.1360827     0.0006124317      0.05238845     -0.006008673     -0.02506626
                      0.03238501      -0.1350649        0.2649474      0.02935554       0.02478043      -0.1374252      0.002137313      0.05178704
                      0.00119492      0.05149711       0.02479437      -0.1374308        0.2648997      0.02949412       0.03052634      -0.1357388
                     -0.00573101     -0.02491936       0.00109218      0.05249733       0.03146961      -0.1366151        0.2525898      0.02770269
5.8912                 0.2536843       0.0338391       0.03054399      -0.1358616      0.001596614      0.05219273     -0.006498071     -0.02490105
                      0.03027365       -0.134864        0.2705538      0.02666667       0.02259605      -0.1370455       0.00310419      0.05157072
                     0.002151592      0.05130867       0.02261004      -0.1370513        0.2705097      0.02680541       0.02839971      -0.1354921
                    -0.006214404      -0.0247654      0.002078444      0.05229248       0.02932167       -0.136375        0.2580888      0.02528515
5.8928                 0.2591826      0.03146672        0.0284179         -0.1356      0.002573074      0.05197543     -0.006982717     -0.02472479
                       0.0281751      -0.1346235        0.2761068      0.02389417        0.0204295      -0.1366242      0.004063075      0.05133339
                     0.003101291      0.05109959       0.02044345      -0.1366301        0.2760664      0.02403296       0.02628733      -0.1352054
                    -0.006693504     -0.02460063       0.00305676      0.05206602       0.02718819      -0.1360945        0.2635413      0.02278766
5.8944                 0.2646359      0.02901515       0.02630672      -0.1352985      0.003541273      0.05173684     -0.007462325      -0.0245376
                      0.02609013       -0.134344        0.2816051      0.02103931       0.01828162      -0.1361616      0.005013471      0.05107529
                     0.004043505      0.05087011       0.01829555      -0.1361678        0.2815683      0.02117805       0.02419017      -0.1348792
                    -0.007168035     -0.02442516      0.004026609      0.05181822       0.02507007      -0.1357738        0.2689459      0.02021129
5.896                  0.2700427      0.02648542       0.02421132      -0.1349576      0.004500703      0.05147723     -0.007936613     -0.02433966
                      0.02401968      -0.1340259        0.2870473      0.01810337       0.01615338      -0.1356585      0.005954863      0.05079673
                     0.004977755      0.05062047       0.01616733      -0.1356649        0.2870141      0.01824196       0.02210906      -0.1345141
                    -0.007637736     -0.02423915      0.004987436      0.05154937       0.02296821      -0.1354136        0.2743014      0.01755714
5.8976                 0.2754019      0.02387856       0.02213262      -0.1345778      0.005450821       0.0511969     -0.008405308     -0.02413112
                      0.02196456      -0.1336697         0.292432      0.01508769       0.01404566      -0.1351156       0.00688677      0.05049799
                      0.00590352      0.05035092       0.01405958      -0.1351221        0.2924024      0.01522603       0.02004488      -0.1341105
                    -0.008102344     -0.02404273      0.005938744      0.05125977        0.0208834      -0.1350144        0.2796065      0.01482635
5.8992                 0.2807122      0.02119565       0.02007144      -0.1341597      0.006391113      0.05089616     -0.008868138     -0.02391216
                      0.01992554      -0.1332758         0.297758      0.01199363       0.01195932      -0.1345333      0.007808663      0.05017939
                     0.006820339      0.05006174       0.01197323      -0.1345401        0.2977318      0.01213162       0.01799837       -0.133669
                    -0.008561595     -0.02383606      0.006880023      0.05094975       0.01881655      -0.1345768          0.28486      0.01202005
5.9008                 0.2859726      0.01843777       0.01802861      -0.1337039      0.007321107      0.05057535     -0.009324864     -0.02368294
                      0.01790344      -0.1328448        0.3030239     0.008822555      0.009895205      -0.1339125      0.008720082      0.04984125
                     0.007727754      0.04975321      0.009909092      -0.1339195        0.3030013     0.008960101       0.01597043      -0.1331903
                    -0.009015242     -0.02361928      0.007810772      0.05061965       0.01676848      -0.1341014        0.2900608     0.009139416
5.9024                 0.2911817      0.01560605        0.0160049      -0.1332109      0.008240298      0.05023479     -0.009775213     -0.02344366
                      0.01589906      -0.1323773        0.3082285     0.005575878      0.007854185      -0.1332539      0.009620565       0.0494839
                     0.008625299      0.04942562      0.007868048      -0.1332611        0.3082094     0.005712882       0.01396174      -0.1326749
                    -0.009463042     -0.02339256      0.008730489      0.05026979       0.01473997      -0.1335887        0.2952077     0.006185642
5.904                  0.2963386      0.01270162        0.0140011      -0.1326814      0.009148214      0.04987484      -0.01021893      -0.0231945
                      0.01391318      -0.1318737        0.3133707     0.002255025      0.005837019      -0.1325582       0.01050965      0.04910769
                     0.009512512      0.04907929      0.005850886      -0.1325655         0.313355     0.002391394       0.01197322      -0.1321233
                    -0.009904733     -0.02315607      0.009638722      0.04990054       0.01273177      -0.1330395        0.3002996     0.003159944
5.9056                  0.301442     0.009725629       0.01201802      -0.1321161       0.01004439      0.04949587      -0.01065578     -0.02293568
                      0.01194652      -0.1313346        0.3184493    -0.001138551      0.003844509      -0.1318261       0.01138689      0.04871298
                      0.01038894      0.04871453      0.003858343      -0.1318336         0.318437    -0.001002912       0.01000549      -0.1315363
                     -0.01034009        -0.02291         0.010535      0.04951226       0.01074476      -0.1324544        0.3053353    6.355556e-05
5.9072                 0.3064909     0.006679261       0.01005633      -0.1315155       0.01092839      0.04909825      -0.01108554     -0.02266738
                     0.009999799      -0.1307607        0.3234631    -0.004603379      0.001877428      -0.1310584       0.01225184      0.04830014
                      0.01125418      0.04833166      0.001891225      -0.1310661        0.3234542     -0.00446856      0.008059335      -0.1309146
                     -0.01076886     -0.02265452       0.01141887      0.04910536      0.008779568       -0.131834        0.3103139    -0.003102269
5.9088                 0.3114843      0.00356371       0.00811686      -0.1308804       0.01179975      0.04868237      -0.01150794     -0.02238982
                     0.008073773      -0.1301526        0.3284111    -0.008137964    -6.350576e-05      -0.1302559       0.01310409      0.04786956
                      0.01210779      0.04793103    -4.975092e-05      -0.1302638        0.3284056    -0.008004056      0.006135495      -0.1302586
                     -0.01119083     -0.02238982       0.01228987      0.04868021      0.006837005      -0.1311791        0.3152344    -0.006336256
5.9104                 0.3164211    0.0003801922      0.006200176      -0.1302115       0.01265807      0.04824862       -0.0119228     -0.02210323
                     0.006169102      -0.1295108        0.3332923      -0.0117408     -0.001977568      -0.1294194       0.01394323      0.04742164
                      0.01294937        0.047513      -0.00196386      -0.1294275          0.33329     -0.01160789      0.004234627      -0.1295693
                     -0.01160579     -0.02211609       0.01314763      0.04823723      0.004917727      -0.1304903        0.3200957    -0.009637114
5.912                  0.3213004    -0.002870061      0.004307068      -0.1295094        0.0135029      0.04779744      -0.01232988     -0.02180781
                     0.004286521       -0.128836        0.3381056     -0.01541034     -0.003864058      -0.1285497       0.01476884      0.04695677
                       0.0137785      0.04707793     -0.003850403      -0.1285579        0.3381065     -0.01527852      0.002357388      -0.1288471
                     -0.01201349     -0.02183355       0.01399168      0.04777683      0.003022396      -0.1297684        0.3248968     -0.01300353
5.9136                 0.3261212    -0.006185799      0.002438177      -0.1287749       0.01433387      0.04732923      -0.01272896     -0.02150382
                     0.002426623      -0.1281289        0.3428501     -0.01914505     -0.005722432      -0.1276476       0.01558057      0.04647536
                      0.01459483      0.04662618     -0.005708804       -0.127656        0.3428542      -0.0190144     0.0005044799       -0.128093
                     -0.01241375     -0.02154239       0.01482166      0.04729944       0.00115178       -0.129014        0.3296369      -0.0164342
5.9152                 0.3308825    -0.009565757     0.0005941264      -0.1280087        0.0151506      0.04684443      -0.01311986     -0.02119147
                    0.0005900476      -0.1273901        0.3475249     -0.02294336     -0.007551892       -0.126714       0.01637803      0.04597785
                      0.01539794      0.04615815     -0.007538234      -0.1267226        0.3475322     -0.02281396     -0.001323584      -0.1273075
                     -0.01280635     -0.02124284       0.01563715       0.0468055    -0.0006936925       -0.128228        0.3343151     -0.01992776
5.9168                 0.3355835     -0.01300866     -0.001224495      -0.1272116       0.01595268      0.04634348      -0.01350236     -0.02087101
                    -0.001222478      -0.1266204        0.3521291      -0.0268037     -0.009351849      -0.1257497       0.01716084      0.04546467
                      0.01618748      0.04567422     -0.009338289      -0.1257585        0.3521394     -0.02667563     -0.003126056      -0.1264915
                      -0.0131911      -0.0209351       0.01643781      0.04629547     -0.002513241      -0.1274111        0.3389305     -0.02348287
5.9184                 0.3402233     -0.01651319     -0.003017112      -0.1263843       0.01673979      0.04582682      -0.01387629     -0.02054268
                    -0.003010539      -0.1258204        0.3566619     -0.03072446      -0.01112186      -0.1247556       0.01792867      0.04493626
                      0.01696309       0.0451748      -0.01110835      -0.1247646        0.3566752      -0.0305978     -0.004902433      -0.1256457
                      -0.0135678      -0.0206194       0.01722327      0.04576978     -0.004306298      -0.1265641        0.3434823     -0.02709817
5.92                   0.3448012     -0.02007807     -0.004783056      -0.1255277       0.01751155      0.04529493      -0.01424147     -0.02020674
                    -0.004773384      -0.1249908        0.3611224     -0.03470405      -0.01286122      -0.1237326       0.01868122      0.04439307
                      0.01772446      0.04466029      -0.01284775      -0.1237418        0.3611386     -0.03457888     -0.006652168      -0.1247708
                     -0.01393628     -0.02029597       0.01799319      0.04522892     -0.006072376      -0.1256877        0.3479696     -0.03077227
5.9216                 0.3493163     -0.02370196     -0.006521924      -0.1246425       0.01826766      0.04474827      -0.01459772     -0.01986344
                    -0.006510524      -0.1241323        0.3655099     -0.03874084      -0.01456949      -0.1226816       0.01941812      0.04383557
                      0.01847122      0.04413112      -0.01455607       -0.122691        0.3655291     -0.03861724     -0.008374745      -0.1238677
                     -0.01429635     -0.01996505       0.01874723      0.04467335     -0.007810838      -0.1247828        0.3523918     -0.03450378
5.9232                 0.3537677     -0.02738353     -0.008233039      -0.1237295       0.01900779      0.04418733      -0.01494488     -0.01951304
                    -0.008221491      -0.1232458        0.3698238     -0.04283322      -0.01624606      -0.1216036        0.0201391       0.0432642
                      0.01920306      0.04358771      -0.01623275      -0.1216131        0.3698457     -0.04271125      -0.01006955      -0.1229371
                     -0.01464784     -0.01962686        0.0194851      0.04410356     -0.009521246      -0.1238503        0.3567482     -0.03829131
5.9248                 0.3581549     -0.03112144     -0.009916045      -0.1227895       0.01973164      0.04361256      -0.01528278     -0.01915581
                    -0.009905605      -0.1223319        0.3740633     -0.04697955       -0.0178906      -0.1204993       0.02084386      0.04267946
                       0.0199197      0.04303049      -0.01787742       -0.120509         0.374088     -0.04685928      -0.01173617      -0.1219799
                     -0.01499058     -0.01928166       0.02020649      0.04352004      -0.01120307      -0.1228908         0.361038     -0.04213344
5.9264                  0.362477     -0.03491433      -0.01157044      -0.1218233       0.02043894      0.04302448      -0.01561129     -0.01879199
                     -0.01156256      -0.1213914        0.3782277     -0.05117818      -0.01950264      -0.1193698       0.02153214      0.04208182
                      0.02062083      0.04245991      -0.01948941      -0.1193797        0.3782552     -0.05105969      -0.01337415      -0.1209968
                     -0.01532444     -0.01892967       0.02091112      0.04292329      -0.01285581      -0.1219052        0.3652606     -0.04602876
5.928                  0.3667335     -0.03876084      -0.01319573      -0.1208318       0.02112941      0.04242357      -0.01593024     -0.01842188
                     -0.01319177       -0.120425        0.3823166     -0.05542747      -0.02108168       -0.118216       0.02220365      0.04147176
                      0.02130618      0.04187641      -0.02106852      -0.1182261        0.3823467     -0.05531081      -0.01498303      -0.1199887
                     -0.01564925     -0.01857118       0.02159872      0.04231379       -0.0144791      -0.1208945        0.3694153     -0.04997585
5.9296                 0.3709237      -0.0426596      -0.01479153      -0.1198159        0.0218028      0.04181035      -0.01623954     -0.01804574
                     -0.01479281      -0.1194336        0.3863294     -0.05972576      -0.02262729      -0.1170388       0.02285817      0.04084978
                      0.02197549      0.04128044      -0.02261426       -0.117049        0.3863621       -0.059611      -0.01656234      -0.1189563
                     -0.01596487      -0.0182064       0.02226905      0.04169207      -0.01607255      -0.1198593        0.3735017     -0.05397328
5.9312                  0.375047     -0.04660922       -0.0163574      -0.1187763       0.02245887      0.04118531      -0.01653903     -0.01766386
                     -0.01636521      -0.1184179        0.3902656     -0.06407139      -0.02413925      -0.1158392       0.02349548      0.04021638
                      0.02262849      0.04067247      -0.02412625      -0.1158496        0.3903007     -0.06395859      -0.01811177      -0.1179006
                     -0.01627117     -0.01783562       0.02292186      0.04105863      -0.01763557      -0.1188006        0.3775192      -0.0580196
5.9328                 0.3791028     -0.05060832      -0.01789301      -0.1177139        0.0230974      0.04054898      -0.01682861      -0.0172765
                     -0.01790869      -0.1173788        0.3941247     -0.06846271      -0.02561709      -0.1146181       0.02411534      0.03957205
                      0.02326496      0.04005297      -0.02560418      -0.1146287        0.3941622      -0.0683519      -0.01963086      -0.1168224
                     -0.01656802     -0.01745908       0.02355694        0.040414      -0.01916804      -0.1177193        0.3814671     -0.06211337
5.9344                 0.3830905     -0.05465552      -0.01939808      -0.1166295       0.02371818      0.03990186      -0.01710817     -0.01688396
                     -0.01942277      -0.1163169        0.3979063     -0.07289804       -0.0270606      -0.1133765       0.02471756       0.0389173
                      0.02388469       0.0394224      -0.02704784      -0.1133872        0.3979461      -0.0727893      -0.02111935      -0.1157225
                     -0.01685531     -0.01707705       0.02417409       0.0397587      -0.02066948      -0.1166162        0.3853452     -0.06625315
5.936                  0.3870098      -0.0587494      -0.02087216      -0.1155241         0.024321      0.03924449      -0.01737761     -0.01648651
                     -0.02090705      -0.1152332          0.40161     -0.07737572      -0.02846952      -0.1121153       0.02530198      0.03825264
                      0.02448744      0.03878124       -0.0284568      -0.1121262        0.4016521     -0.07726911      -0.02257694      -0.1146018
                     -0.01713291     -0.01668979       0.02477312      0.03909325      -0.02213958      -0.1154922        0.3891529     -0.07043749
5.9376                 0.3908601     -0.06288859      -0.02231508      -0.1143985       0.02490574      0.03857737      -0.01763684     -0.01608445
                     -0.02236133      -0.1141284        0.4052355     -0.08189409      -0.02984348      -0.1108355        0.0258684      0.03757858
                      0.02507304      0.03812997      -0.02983086      -0.1108466        0.4052798     -0.08178965      -0.02400326      -0.1134611
                     -0.01740075     -0.01629758       0.02535387      0.03841818      -0.02357811      -0.1143481        0.3928897     -0.07466494
5.9392                  0.394641     -0.06707166      -0.02372644      -0.1132535       0.02547221      0.03790106      -0.01788578     -0.01567806
                     -0.02378525      -0.1130033        0.4087825      -0.0864515      -0.03118235      -0.1095381       0.02641668      0.03689565
                      0.02564129      0.03746907      -0.03116983      -0.1095494        0.4088289     -0.08634926       -0.0253981      -0.1123013
                      -0.0176587     -0.01590068       0.02591617      0.03773402      -0.02498482      -0.1131848        0.3965555     -0.07893405
5.9408                  0.398352     -0.07129722      -0.02510614      -0.1120901       0.02602025      0.03721605      -0.01812437     -0.01526762
                     -0.02517844      -0.1118588        0.4122507     -0.09104626      -0.03248595      -0.1082241       0.02694669      0.03620435
                      0.02619206      0.03679902       -0.0324735      -0.1082355        0.4122992     -0.09094631      -0.02676121      -0.1111232
                      -0.0179067     -0.01549936        0.0264599      0.03704131      -0.02635938      -0.1120033        0.4001498     -0.08324336
5.9424                 0.4019928     -0.07556386      -0.02645386       -0.110909       0.02654978       0.0365229      -0.01835253     -0.01485344
                     -0.02654069      -0.1106957          0.41564     -0.09567676      -0.03375402      -0.1068944        0.0274583       0.0355052
                      0.02672515      0.03612032      -0.03374168       -0.106906        0.4156904     -0.09557909      -0.02809227      -0.1099277
                     -0.01814465     -0.01509389       0.02698492      0.03634058      -0.02770161      -0.1108043        0.4036722     -0.08759145
5.944                  0.4055631     -0.07987015      -0.02776939      -0.1097113       0.02706066      0.03582213      -0.01857021      -0.0144358
                      -0.0278718      -0.1095149        0.4189502      -0.1003413      -0.03498655      -0.1055499       0.02795142      0.03479873
                      0.02724046      0.03543346      -0.03497427      -0.1055617        0.4190024       -0.100246      -0.02939127      -0.1087157
                     -0.01837249     -0.01468456       0.02749115      0.03563238      -0.02901131      -0.1095889        0.4071227     -0.09197685
5.9456                 0.4090626     -0.08421471      -0.02905265      -0.1084976       0.02755281      0.03511428      -0.01877736     -0.01401499
                     -0.02917151      -0.1083171        0.4221811      -0.1050383       -0.0361833      -0.1041917       0.02842594      0.03408545
                      0.02773785      0.03473892      -0.03617115      -0.1042036         0.422235      -0.1049453      -0.03065787      -0.1074881
                     -0.01859015     -0.01427164       0.02797847      0.03491722      -0.03028845      -0.1083577        0.4105008     -0.09639812
5.9472                 0.4124909     -0.08859611      -0.03030347       -0.107269       0.02802613      0.03439988      -0.01897396     -0.01359131
                     -0.03043963      -0.1071031        0.4253325      -0.1097661       -0.0373443      -0.1028206       0.02888179      0.03336589
                      0.02821722      0.03403722      -0.03733222      -0.1028327        0.4253883      -0.1096755      -0.03189205      -0.1062456
                     -0.01879759      -0.0138554       0.02844683      0.03419567       -0.0315327      -0.1071119        0.4138065      -0.1008538
5.9488                 0.4158479     -0.09301299       -0.0315217      -0.1060263       0.02848059      0.03367946      -0.01915995     -0.01316505
                     -0.03167592      -0.1058739        0.4284047       -0.114523      -0.03846941      -0.1014378       0.02931893      0.03264057
                      0.02867847      0.03332884      -0.03845747        -0.10145         0.428462      -0.1144349      -0.03309361      -0.1049893
                     -0.01899475     -0.01343613       0.02889617      0.03346823      -0.03274409      -0.1058521        0.4170396      -0.1053425
5.9504                 0.4191334     -0.09746391      -0.03270719      -0.1047704       0.02891613      0.03295355      -0.01933533     -0.01273649
                     -0.03288036      -0.1046302        0.4313974      -0.1193074      -0.03955866       -0.100044       0.02973729      0.03191001
                      0.02912152      0.03261429      -0.03954681      -0.1000565        0.4314562      -0.1192218      -0.03426244      -0.1037199
                     -0.01918159     -0.01301409       0.02932645      0.03273547      -0.03392247      -0.1045794        0.4201998      -0.1098627
5.952                   0.422347      -0.1019474      -0.03386004      -0.1035021       0.02933272      0.03222269       -0.0195001     -0.01230593
                     -0.03405272       -0.103373        0.4343106      -0.1241178      -0.04061203     -0.09864035       0.03013686      0.03117473
                      0.02954631      0.03189405      -0.04060027     -0.09865293        0.4343709      -0.1240347      -0.03539858      -0.1024382
                     -0.01935808     -0.01258957       0.02973765       0.0319979      -0.03506785      -0.1032945        0.4232872      -0.1144131
5.9536                 0.4254889      -0.1064623      -0.03498009      -0.1022223       0.02973037       0.0314874      -0.01965423     -0.01187367
                      -0.0351929      -0.1021029        0.4371446      -0.1289526      -0.04162949     -0.09722769       0.03051764      0.03043523
                      0.02995279      0.03116862      -0.04161788     -0.09724042        0.4372062      -0.1288719      -0.03650182      -0.1011452
                     -0.01952421     -0.01216285       0.03012975      0.03125607      -0.03618008      -0.1019983        0.4263016      -0.1189922
5.9552                 0.4285587       -0.111007      -0.03606734      -0.1009318       0.03010904      0.03074822      -0.01979774     -0.01143998
                     -0.03630087      -0.1008209        0.4398993      -0.1338101      -0.04261119     -0.09580696       0.03087959      0.02969205
                      0.03034092       0.0304385      -0.04259968     -0.09581984        0.4399623      -0.1337319      -0.03757227     -0.09984175
                     -0.01967995     -0.01173422       0.03050277      0.03051049      -0.03725922      -0.1006918        0.4292431      -0.1235986
5.9568                 0.4315565      -0.1155801      -0.03712174      -0.0996316       0.03046879      0.03000565      -0.01993065     -0.01100516
                     -0.03737656     -0.09952775        0.4425749      -0.1386887      -0.04355719      -0.0943791       0.03122277      0.02894569
                      0.03071068      0.02970419      -0.04354579     -0.09439213        0.4426391      -0.1386131       -0.0386099     -0.09852862
                     -0.01982531     -0.01130393       0.03085673      0.02976171      -0.03830526      -0.0993757        0.4321115      -0.1282309
5.9584                 0.4344821      -0.1201804       -0.0381434      -0.0983224       0.03080963      0.02926022      -0.02005297     -0.01056949
                      -0.0384199      -0.0982243        0.4451716      -0.1435871      -0.04446751     -0.09294507       0.03154718      0.02819667
                      0.03106205      0.02896618      -0.04445626     -0.09295822        0.4452369       -0.143514      -0.03961467     -0.09720668
                     -0.01996027     -0.01087227       0.03119167      0.02901023      -0.03931824     -0.09805096         0.434907      -0.1328877
5.96                   0.4373356      -0.1248064      -0.03913238     -0.09700508       0.03113162      0.02851246      -0.02016474     -0.01013327
                     -0.03943092     -0.09691138        0.4476897      -0.1485034      -0.04534237     -0.09150574        0.0318529      0.02744549
                      0.03139506      0.02822497      -0.04533122     -0.09151903        0.4477559      -0.1484329       -0.0405867     -0.09587677
                     -0.02008485     -0.01043952       0.03150764      0.02825659      -0.04029826     -0.09671837        0.4376296      -0.1375676
5.9616                 0.4401169      -0.1294568      -0.04008871     -0.09568051       0.03143482      0.02776287      -0.02026599    -0.009696756
                     -0.04040959     -0.09558978        0.4501292      -0.1534364      -0.04618189     -0.09006201       0.03213996      0.02669265
                      0.03170972      0.02748103      -0.04617088     -0.09007545        0.4501964      -0.1533685      -0.04152599     -0.09453973
                     -0.02019907     -0.01000595       0.03180471      0.02750128      -0.04124534     -0.09537881        0.4402793      -0.1422693
5.9632                 0.4428261      -0.1341303      -0.04101245      -0.0943495       0.03171931      0.02701195      -0.02035678    -0.009260252
                     -0.04135597     -0.09426032        0.4524905      -0.1583844      -0.04698629     -0.08861478       0.03240846      0.02593864
                      0.03200605      0.02673487      -0.04697535     -0.08862838        0.4525585       -0.158319      -0.04243268     -0.09319637
                     -0.02030295    -0.009571833       0.03208297      0.02674483      -0.04215958     -0.09403309        0.4428563      -0.1469914
5.9648                 0.4454634      -0.1388254      -0.04190376     -0.09301288       0.03198518      0.02626021      -0.02043716     -0.00882402
                     -0.04227006     -0.09292384         0.454774      -0.1633459      -0.04775566     -0.08716498       0.03265847      0.02518397
                      0.03228411      0.02598695      -0.04774489      -0.0871787        0.4548428      -0.1632832      -0.04330684     -0.09184753
                     -0.02039653    -0.009137439       0.03234251      0.02598774      -0.04304115     -0.09268204        0.4453609      -0.1517326
5.9664                 0.4480286      -0.1435408      -0.04276278     -0.09167144       0.03223255      0.02550816      -0.02050719    -0.008388337
                       -0.043152      -0.0915811        0.4569799      -0.1683196      -0.04849036     -0.08571342       0.03289011      0.02442911
                      0.03254396      0.02523777      -0.04847972     -0.08572725        0.4570495      -0.1682595      -0.04414866     -0.09049398
                     -0.02047984    -0.008703039       0.03258347       0.0252305      -0.04389024     -0.09132647         0.447793      -0.1564915
5.968                  0.4505221      -0.1482754      -0.04358973     -0.09032596       0.03246152      0.02475627      -0.02056693    -0.007953487
                     -0.04400183     -0.09023292        0.4591088       -0.173304      -0.04919061     -0.08426095        0.0331035      0.02367456
                      0.03278568       0.0244878      -0.04918006     -0.08427495        0.4591788      -0.1732464      -0.04495831     -0.08913651
                     -0.02055294    -0.008268909       0.03280593      0.02447361      -0.04470694     -0.08996717         0.450153      -0.1612668
5.9696                 0.4529439      -0.1530276      -0.04438469     -0.08897728       0.03267225      0.02400503      -0.02061649    -0.007519717
                     -0.04481968     -0.08888007        0.4611608      -0.1782975      -0.04985658     -0.08280849       0.03329876      0.02292078
                      0.03300936      0.02373751      -0.04984618     -0.08282261        0.4612314      -0.1782425      -0.04573583     -0.08777598
                     -0.02061587      -0.0078353       0.03301008      0.02371755      -0.04549146     -0.08860497        0.4524411      -0.1660572
5.9712                 0.4552942      -0.1577963       -0.0451479     -0.08762614       0.03286488      0.02325492      -0.02065593    -0.007087308
                     -0.04560568     -0.08752333        0.4631366      -0.1832988      -0.05048868     -0.08135682       0.03347604      0.02216825
                      0.03321509      0.02298737      -0.05047841     -0.08137105        0.4632077      -0.1832464      -0.04648153      -0.0864131
                     -0.02066871    -0.007402478       0.03319605      0.02296281      -0.04624401     -0.08724064        0.4546574      -0.1708614
5.9728                 0.4575733      -0.1625802      -0.04587961     -0.08627332       0.03303957       0.0225064      -0.02068536    -0.006656514
                     -0.04636002     -0.08616348        0.4650365      -0.1883066      -0.05108719     -0.07990675        0.0336355      0.02141743
                      0.03340299      0.02223783      -0.05107704     -0.07992112        0.4651079      -0.1882567      -0.04719566     -0.08504864
                     -0.02071152     -0.00697071       0.03336401      0.02220985      -0.04696485     -0.08587494        0.4568024      -0.1756781
5.9744                 0.4597813      -0.1673779      -0.04658006     -0.08491957        0.0331965      0.02175995      -0.02070486    -0.006227592
                     -0.04708286     -0.08480126        0.4668611      -0.1933195      -0.05165246     -0.07845908        0.0337773      0.02066877
                      0.03357318      0.02148936      -0.05164245     -0.07847358        0.4669329      -0.1932721      -0.04787836     -0.08368339
                     -0.02074437    -0.006540239       0.03351415      0.02145913      -0.04765423     -0.08450863        0.4588763      -0.1805062
5.976                  0.4619187      -0.1721882      -0.04724946     -0.08356567       0.03333586      0.02101601      -0.02071456    -0.005800792
                     -0.04777435     -0.08343746        0.4686109       -0.198336      -0.05218481     -0.07701463       0.03390164      0.01992272
                      0.03372581      0.02074241      -0.05217496     -0.07702924        0.4686829      -0.1982911      -0.04852993     -0.08231807
                     -0.02076736    -0.006111331       0.03364666      0.02071111      -0.04831243     -0.08314244        0.4608795      -0.1853442
5.9776                 0.4639854        -0.17701      -0.04788818     -0.08221228       0.03345786      0.02027503      -0.02071457    -0.005376358
                     -0.04843477     -0.08207277        0.4702865       -0.203355      -0.05268465     -0.07557415       0.03400871      0.01917972
                      0.03386103      0.01999741      -0.05267492     -0.07558888        0.4703586      -0.2033127      -0.04915062     -0.08095343
                     -0.02078059    -0.005684226       0.03376175      0.01996625      -0.04893968     -0.08177715        0.4628123      -0.1901911
5.9792                  0.465982      -0.1818419      -0.04849642     -0.08086018       0.03356269      0.01953745        -0.020705    -0.004954546
                      -0.0490643     -0.08070797        0.4718884      -0.2083751      -0.05315238      -0.0741384       0.03409871      0.01844021
                        0.033979      0.01925481      -0.05314276     -0.07415325        0.4719605      -0.2083352      -0.04974079     -0.07959013
                     -0.02078413    -0.005259173       0.03385963      0.01922496      -0.04953637     -0.08041344        0.4646752      -0.1950457
5.9808                 0.4679089      -0.1866829      -0.04907458     -0.07951003        0.0336506      0.01880368      -0.02068599    -0.004535586
                     -0.04966319     -0.07934377        0.4734173       -0.213395      -0.05358838     -0.07270814       0.03417186      0.01770459
                       0.0340799      0.01851505      -0.05357893     -0.07272308        0.4734893      -0.2133576      -0.05030064     -0.07822898
                      -0.0207781    -0.004836419       0.03394055      0.01848769      -0.05010281     -0.07905202        0.4664685      -0.1999066
5.9824                 0.4697663      -0.1915315      -0.04962296     -0.07816254       0.03372181      0.01807416      -0.02065768    -0.004119705
                     -0.05023179     -0.07798082        0.4748736      -0.2184135      -0.05399312     -0.07128403        0.0342284       0.0169733
                      0.03416391      0.01777853       -0.0539838      -0.0712991        0.4749457      -0.2183786       -0.0508306     -0.07687057
                     -0.02076261    -0.004416191       0.03400473      0.01775484      -0.05063929     -0.07769357        0.4681925      -0.2047729
5.984                  0.4715545      -0.1963868      -0.05014189     -0.07681837       0.03377657      0.01734928       -0.0206202    -0.003707141
                     -0.05077029      -0.0766199        0.4762583      -0.2234295      -0.05436703     -0.06986681       0.03426856      0.01624672
                      0.03423123      0.01704568      -0.05435785       -0.069882        0.4763301      -0.2233969      -0.05133096     -0.07551562
                     -0.02073778    -0.003998737       0.03405244      0.01702683      -0.05114621     -0.07633881         0.469848      -0.2096433
5.9856                 0.4732741      -0.2012475      -0.05063181     -0.07547817       0.03381515      0.01662945       -0.0205737    -0.003298116
                     -0.05127903     -0.07526165        0.4775719      -0.2284416      -0.05471063     -0.06845715       0.03429259      0.01552526
                      0.03428208      0.01631689      -0.05470158     -0.06847244        0.4776435      -0.2284115      -0.05180208     -0.07416479
                     -0.02070374    -0.003584264       0.03408394      0.01630406      -0.05162396     -0.07498833        0.4714352      -0.2145167
5.9872                 0.4749254      -0.2061126      -0.05109302     -0.07414261       0.03383781      0.01591505      -0.02051834    -0.002892839
                     -0.05175832     -0.07390674        0.4788151      -0.2334488      -0.05502433     -0.06705573       0.03430077       0.0148093
                      0.03431666      0.01559259      -0.05501542     -0.06707113        0.4788864       -0.233421      -0.05224438     -0.07281872
                      -0.0206606    -0.003173021        0.0340995       0.0155869      -0.05207291     -0.07364283        0.4729548      -0.2193919
5.9888                  0.476509      -0.2109809      -0.05152598     -0.07281228       0.03384484      0.01520646      -0.02045427    -0.002491525
                     -0.05220854     -0.07255583        0.4799886        -0.23845      -0.05530867     -0.06566319       0.03429335      0.01409921
                      0.03433522      0.01487315       -0.0552999     -0.06567869        0.4800595      -0.2384244      -0.05265822     -0.07147803
                     -0.02060852    -0.002765215       0.03409941      0.01487574      -0.05249347      -0.0723029         0.474407       -0.224268
5.9904                 0.4780252      -0.2158512      -0.05193107     -0.07148779       0.03383651      0.01450405      -0.02038166     -0.00209438
                     -0.05262997     -0.07120958        0.4810932      -0.2434439      -0.05556412     -0.06428017       0.03427062      0.01339536
                      0.03433799      0.01415895      -0.05555549     -0.06429576        0.4811637      -0.2434207      -0.05304398     -0.07014336
                     -0.02054763    -0.002361062       0.03408397      0.01417095      -0.05288608     -0.07096919        0.4757927      -0.2291439
5.992                  0.4794746      -0.2207226      -0.05230873     -0.07016975       0.03381313      0.01380816      -0.02030067    -0.001701602
                       -0.053023     -0.06986863        0.4821297      -0.2484295      -0.05579129     -0.06290722       0.03423286      0.01269809
                      0.03432522      0.01345037      -0.05578282     -0.06292291        0.4821995      -0.2484087      -0.05340213     -0.06881528
                     -0.02047808    -0.001960768       0.03405346      0.01347286      -0.05325116     -0.06964222        0.4771124      -0.2340185
5.9936                 0.4808576      -0.2255939      -0.05265938     -0.06885876       0.03377499      0.01311915      -0.02021149    -0.001313387
                     -0.05338807     -0.06853352        0.4830987       -0.253406      -0.05599065     -0.06154497       0.03418038      0.01200776
                      0.03429718      0.01274778      -0.05598231     -0.06156076        0.4831681      -0.2533872      -0.05373308      -0.0674944
                     -0.02040002    -0.001564544       0.03400821      0.01278184      -0.05358915     -0.06832264        0.4783664      -0.2388909
5.9952                 0.4821748      -0.2304643      -0.05298348     -0.06755532       0.03372243      0.01243733      -0.02011429   -0.0009299116
                      -0.0537255     -0.06720494        0.4840012      -0.2583721      -0.05616277       -0.060194       0.03411349      0.01132469
                      0.03425413      0.01205152      -0.05615458     -0.06020987        0.4840699      -0.2583554      -0.05403725     -0.06618127
                     -0.02031361    -0.001172583       0.03394854      0.01209819      -0.05390054     -0.06701095        0.4795557      -0.2437599
5.9968                 0.4834269      -0.2353325       -0.0532815     -0.06625999       0.03365575      0.01176304      -0.02000925   -0.0005513651
                     -0.05403571     -0.06588344        0.4848379      -0.2633267       -0.0563082     -0.05885481        0.0340325      0.01064919
                      0.03419634      0.01136194      -0.05630017     -0.05887078        0.4849058      -0.2633124      -0.05431518      -0.0648764
                     -0.02021902   -0.0007850811       0.03387477      0.01142225      -0.05418578     -0.06570774        0.4806805      -0.2486247
5.9984                 0.4846143      -0.2401975       -0.0535539     -0.06497331       0.03357529      0.01109657      -0.01989657    -0.000177916
                     -0.05431917     -0.06456956        0.4856095      -0.2682695      -0.05642758     -0.05752794       0.03393772     0.009981592
                      0.03412411      0.01067937      -0.05641967       -0.057544         0.485677      -0.2682567      -0.05456724     -0.06358037
                     -0.02011641   -0.0004022238       0.03378724      0.01075432      -0.05444537     -0.06441347        0.4817417       -0.253484
6                      0.4857374      -0.2450587      -0.05380121     -0.06369574       0.03348139      0.01043822      -0.01977643    0.0001902602
                     -0.05457627     -0.06326389        0.4863172      -0.2731986      -0.05652142      -0.0562139        0.0338295     0.009322174
                      0.03403773      0.01000414      -0.05651367     -0.05623004        0.4863837      -0.2731882      -0.05479397      -0.0622937
                     -0.02000596   -2.419483e-05       0.03368629      0.01009469      -0.05467978     -0.06312869        0.4827398      -0.2583374
6.0016                 0.4867972      -0.2499146      -0.05402384     -0.06242784       0.03337438     0.009788282      -0.01964904    0.0005530186
                     -0.05480749     -0.06196694        0.4869615      -0.2781139      -0.05659036     -0.05491316       0.03370817     0.008671221
                       0.0339375     0.009336555      -0.05658275     -0.05492938        0.4870273      -0.2781054      -0.05499581     -0.06101683
                     -0.01988783    0.0003488286       0.03357226     0.009443639      -0.05488954     -0.06185384        0.4836755      -0.2631838
6.0032                 0.4877942      -0.2547644      -0.05422238     -0.06116997       0.03325462     0.009147014      -0.01951459    0.0009101937
                     -0.05501326     -0.06067925        0.4875435      -0.2830143      -0.05663498     -0.05362616       0.03357405      0.00802901
                      0.03382373     0.008676927      -0.05662752     -0.05364247        0.4876083      -0.2830076      -0.05517332     -0.05975028
                     -0.01976223    0.0007166851       0.03344552     0.008801435      -0.05507516     -0.06058942        0.4845494      -0.2680223
6.0048                 0.4887287      -0.2596078       -0.0543973     -0.05992264       0.03312246     0.008514673      -0.01937328     0.001261646
                     -0.05519403     -0.05940134        0.4880639      -0.2878989      -0.05665589     -0.05235337       0.03342751     0.007395796
                      0.03369674      0.00802554      -0.05664859     -0.05236975        0.4881279      -0.2878938      -0.05532698     -0.05849449
                     -0.01962932     0.001079205       0.03330641     0.008168334      -0.05523713     -0.05933587        0.4853623      -0.2728521
6.0064                 0.4896016      -0.2644433      -0.05454913     -0.05868628       0.03297826     0.007891505      -0.01922532     0.001607233
                     -0.05535033     -0.05813365        0.4885238      -0.2927667      -0.05665375     -0.05109519       0.03326891     0.006771828
                      0.03355683     0.007382675      -0.05664656     -0.05111166        0.4885867      -0.2927637      -0.05545732     -0.05724988
                     -0.01948931     0.001436232       0.03315531     0.007544576      -0.05537602     -0.05809361        0.4861149       -0.277672
6.008                  0.4904137      -0.2692701      -0.05467839     -0.05746128       0.03282239     0.007277741      -0.01907093     0.001946831
                     -0.05548261     -0.05687668         0.488924      -0.2976172      -0.05662914       -0.049852       0.03309858     0.006157339
                      0.03340437     0.006748603       -0.0566221     -0.04986855        0.4889858       -0.297616      -0.05556484      -0.0560169
                     -0.01934237     0.001787613       0.03299259     0.006930389      -0.05549236       -0.056863        0.4868076       -0.282482
6.0096                 0.4911653      -0.2740875      -0.05478561     -0.05624803       0.03265521     0.006673599      -0.01891031     0.002280304
                      -0.0555914     -0.05563088        0.4892652      -0.3024496      -0.05658271      -0.0486242        0.0329169     0.005552552
                      0.03323967     0.006123579      -0.05657582     -0.04864081        0.4893259      -0.3024503      -0.05565007     -0.05479594
                     -0.01918872     0.002133216       0.03281862     0.006325988      -0.05558664      -0.0556445        0.4874414      -0.2872806
6.0112                 0.4918575      -0.2788946      -0.05487134      -0.0550469       0.03247709     0.006079282      -0.01874367     0.002607543
                     -0.05567719     -0.05439668        0.4895487      -0.3072632      -0.05651508      -0.0474121       0.03272425     0.004957676
                      0.03306307      0.00550785      -0.05650837     -0.04742878        0.4896083      -0.3072654       -0.0557136     -0.05358737
                     -0.01902854     0.002472888       0.03263377     0.005731574      -0.05565949     -0.05443843        0.4880171      -0.2920673
6.0128                 0.4924906       -0.283691      -0.05493612     -0.05385825       0.03228842     0.005494981      -0.01857124     0.002928437
                     -0.05574048     -0.05317449        0.4897751      -0.3120573      -0.05642691     -0.04621604       0.03252097     0.004372907
                      0.03287492     0.004901651      -0.05642032     -0.04623279        0.4898335      -0.3120612      -0.05575592     -0.05239156
                     -0.01886205     0.002806513       0.03243843     0.005147338      -0.05571141     -0.05324518        0.4885353      -0.2968412
6.0144                 0.4930657      -0.2884751      -0.05498052      -0.0526824       0.03208956     0.004920875      -0.01839324      0.00324288
                      -0.0557818     -0.05196473        0.4899454      -0.3168314      -0.05631885     -0.04503633       0.03230746     0.003798429
                      0.03267556     0.004305203      -0.05631242     -0.04505315        0.4900027      -0.3168366      -0.05577764     -0.05120885
                     -0.01868944     0.003133951       0.03223297      0.00457345      -0.05574297     -0.05206501        0.4889966      -0.3016017
6.016                  0.4935831       -0.293247      -0.05500505     -0.05151967       0.03188092      0.00435713      -0.01820987      0.00355078
                      -0.0558017     -0.05076775        0.4900607      -0.3215843      -0.05619153     -0.04387325       0.03208408     0.003234413
                      0.03246536     0.003718717      -0.05618523     -0.04389014        0.4901169       -0.321591      -0.05577922     -0.05003959
                     -0.01851094     0.003455099       0.03201779     0.004010077      -0.05575475     -0.05089827        0.4894019      -0.3063483
6.0176                 0.4940438      -0.2980053      -0.05501031     -0.05037034       0.03166285     0.003803896      -0.01802137     0.003852047
                      -0.0558007     -0.04958393        0.4901218      -0.3263161      -0.05604561     -0.04272706       0.03185121     0.002681016
                      0.03224468     0.003142392      -0.05603947     -0.04274399        0.4901766      -0.3263242      -0.05576131     -0.04888404
                     -0.01832673     0.003769841       0.03179328     0.003457365      -0.05574727     -0.04974525        0.4897519      -0.3110802
6.0192                 0.4944484      -0.3027498      -0.05499685     -0.04923469       0.03143576     0.003261311      -0.01782795     0.004146601
                     -0.05577933     -0.04841361        0.4901296      -0.3310258      -0.05588172     -0.04159797       0.03160923     0.002138385
                      0.03201387     0.002576414      -0.05587571     -0.04161498         0.490183      -0.3310356      -0.05572442     -0.04774252
                     -0.01813705     0.004078074       0.03155981     0.002915448      -0.05572115     -0.04860621        0.4900475      -0.3157966
6.0208                 0.4947977      -0.3074795      -0.05496522     -0.04811297       0.03120003     0.002729502      -0.01762985      0.00443437
                     -0.05573814     -0.04725712        0.4900851      -0.3357131      -0.05570053     -0.04048625       0.03135854      0.00160665
                       0.0317733     0.002020958      -0.05569466      -0.0405033        0.4901371      -0.3357243      -0.05566917     -0.04661526
                     -0.01794209       0.0043797       0.03131778     0.002384449      -0.05567694     -0.04748139        0.4902892      -0.3204972
6.0224                 0.4950926      -0.3121938      -0.05491597     -0.04700541       0.03095603      0.00220858      -0.01742729      0.00471529
                     -0.05567769     -0.04611477        0.4899891      -0.3403775      -0.05550267     -0.03939205        0.0310995     0.001085931
                      0.03152334     0.001476185      -0.05549697     -0.03940915          0.49004      -0.3403896      -0.05559604     -0.04550257
                     -0.01774209      0.00467463       0.03106758     0.001864476      -0.05561518     -0.04637104        0.4904778      -0.3251813
6.024                  0.4953333      -0.3168925      -0.05484969     -0.04591225       0.03070417     0.001698643      -0.01722048     0.004989299
                     -0.05559853     -0.04498684        0.4898428      -0.3450182      -0.05528882     -0.03831554        0.0308325    0.0005763358
                      0.03126436    0.0009422476      -0.05528326     -0.03833271         0.489892      -0.3450319      -0.05550565     -0.04440462
                     -0.01753725     0.004962787        0.0308096     0.001355624      -0.05553648     -0.04527535        0.4906143      -0.3298483
6.0256                 0.4955211      -0.3215744      -0.05476693     -0.04483368       0.03044482     0.001199773      -0.01700966     0.005256346
                     -0.05550121     -0.04387363        0.4896468      -0.3496354      -0.05505962     -0.03725689       0.03055793     7.79574e-05
                      0.03099673    0.0004192946      -0.05505418     -0.03727411        0.4896948      -0.3496501      -0.05539858     -0.04332165
                      -0.0173278     0.005244086       0.03054423    0.0008579824      -0.05544142     -0.04419453        0.4906993      -0.3344976
6.0272                 0.4956566      -0.3262393      -0.05466827     -0.04376984       0.03017837    0.0007120592      -0.01679504     0.005516394
                     -0.05538632     -0.04277535        0.4894023       -0.354228      -0.05481568     -0.03621623       0.03027617   -0.0004091229
                      0.03072082   -9.258492e-05      -0.05481039     -0.03623351        0.4894489      -0.3542438      -0.05527538     -0.04225386
                     -0.01711394     0.005518466       0.03027186    0.0003715972      -0.05533053     -0.04312874        0.4907337      -0.3391287
6.0288                 0.4957405      -0.3308864      -0.05455426     -0.04272092        0.0299052    0.0002355447      -0.01657686     0.005769401
                     -0.05525438     -0.04169225        0.4891101       -0.358796      -0.05455768     -0.03519367       0.02998761   -0.0008848363
                      0.03043702     -0.00059324      -0.05455254     -0.03521098        0.4891553      -0.3588129      -0.05513661     -0.04120137
                     -0.01689592     0.005785863       0.02999288   -0.0001034519      -0.05520438     -0.04207813         0.490718      -0.3437413
6.0304                 0.4957737      -0.3355153      -0.05442545     -0.04168705       0.02962571   -0.0002297172      -0.01635534     0.006015334
                     -0.05510597     -0.04062457        0.4887713      -0.3633389      -0.05428623     -0.03418928       0.02969261    -0.001349127
                      0.03014569    -0.001082581      -0.05428124     -0.03420664         0.488815      -0.3633567      -0.05498285     -0.04016438
                     -0.01667393     0.006046225       0.02970766   -0.0005671296      -0.05506359     -0.04104284        0.4906533      -0.3483347
6.032                  0.4957569      -0.3401255      -0.05428242     -0.04066835       0.02934026   -0.0006836918       -0.0161307     0.006254182
                     -0.05494165     -0.03957248        0.4883866      -0.3678565        -0.054002     -0.03320312       0.02939157     -0.00180195
                      0.02984721     -0.00156052      -0.05399715     -0.03322055        0.4884289      -0.3678751      -0.05481467     -0.03914304
                     -0.01644822     0.006299496       0.02941661    -0.001019405      -0.05490867       -0.040023        0.4905403      -0.3529086
6.0336                 0.4956907      -0.3447165      -0.05412569     -0.03966495       0.02904924    -0.001126356      -0.01590317     0.006485921
                     -0.05476201     -0.03853616         0.487957      -0.3723482      -0.05370558     -0.03223528       0.02908487    -0.002243275
                      0.02954196    -0.002026978      -0.05370088     -0.03225274        0.4879979      -0.3723677      -0.05463262      -0.0381374
                     -0.01621898     0.006545646       0.02912008    -0.001460261      -0.05474019     -0.03901869        0.4903795      -0.3574626
6.0352                 0.4955762      -0.3492877      -0.05395585     -0.03867691       0.02875302    -0.001557701      -0.01567296     0.006710547
                     -0.05456758      -0.0375158        0.4874836      -0.3768141      -0.05339764     -0.03128576       0.02877287    -0.002673082
                      0.02923032    -0.002481889      -0.05339307     -0.03130326        0.4875229      -0.3768344      -0.05443726     -0.03714763
                     -0.01598646     0.006784638       0.02881848     -0.00188969      -0.05455873     -0.03802999         0.490172      -0.3619962
6.0368                 0.4954138      -0.3538388      -0.05377344      -0.0377043       0.02845198    -0.001977728       -0.0154403     0.006928056
                     -0.05435894      -0.0365115         0.486967      -0.3812536      -0.05307876     -0.03035457       0.02845595    -0.003091364
                      0.02891265    -0.002925202      -0.05307432     -0.03037212        0.4870049      -0.3812747      -0.05422916     -0.03617378
                     -0.01575086     0.007016439       0.02851216      -0.0023077      -0.05436482     -0.03705697        0.4899184      -0.3665091
6.0384                 0.4952046      -0.3583694      -0.05357898     -0.03674718       0.02814649     -0.00238645       -0.0152054      0.00713846
                     -0.05413665     -0.03552344        0.4864083      -0.3856668      -0.05274954     -0.02944172       0.02813449    -0.003498125
                      0.02858933    -0.003356872      -0.05274526      -0.0294593        0.4864447      -0.3856886      -0.05400888     -0.03521591
                     -0.01551242     0.007241036       0.02820151    -0.002714309      -0.05415902     -0.03609968        0.4896196      -0.3710009
6.04                   0.4949492      -0.3628791      -0.05337303     -0.03580558        0.0278369    -0.002783893      -0.01496848     0.007341767
                     -0.05390127      -0.0345517        0.4858082      -0.3900532      -0.05241064     -0.02854713       0.02780884    -0.003893381
                      0.02826075    -0.003776873      -0.05240647     -0.02856477        0.4858433      -0.3900756      -0.05377695     -0.03427408
                     -0.01527134     0.007458415       0.02788688    -0.003109546      -0.05394187     -0.03515813        0.4892761      -0.3754714
6.0416                 0.4946486      -0.3673674       -0.0531561     -0.03487952       0.02752359    -0.003170095      -0.01472975     0.007538001
                     -0.05365337     -0.03359636        0.4851678      -0.3944128       -0.0520626     -0.02767081       0.02747938    -0.004277159
                      0.02792725    -0.004185183      -0.05205858     -0.02768848        0.4852014      -0.3944358      -0.05353392     -0.03334831
                     -0.01502784     0.007668569       0.02756864    -0.003493454       -0.0537139     -0.03423237         0.488889        -0.37992
6.0432                 0.4943031       -0.371834      -0.05292875     -0.03396901        0.0272069    -0.003545103      -0.01448943     0.007727183
                     -0.05339348     -0.03265752         0.484488      -0.3987454      -0.05170603     -0.02681266       0.02714647    -0.004649499
                      0.02758922    -0.004581797      -0.05170216     -0.02683036          0.48452      -0.3987689      -0.05328032     -0.03243863
                     -0.01478214     0.007871495       0.02724715    -0.003866086      -0.05347566     -0.03332234        0.4884589      -0.3843468
6.0448                 0.4939139      -0.3762786      -0.05269147     -0.03307402       0.02688718    -0.003908977      -0.01424773     0.007909343
                     -0.05312219     -0.03173521        0.4837693       -0.403051      -0.05134152     -0.02597261       0.02681044     -0.00501045
                      0.02724702     -0.00496672      -0.05133777     -0.02599035        0.4837999      -0.4030749       -0.0530167     -0.03154502
                     -0.01453446      0.00806721       0.02692275    -0.004227504      -0.05322765     -0.03242806        0.4879864      -0.3887512
6.0464                 0.4934816       -0.380701      -0.05244476     -0.03219453       0.02656479    -0.004261787      -0.01400484     0.008084529
                     -0.05284002     -0.03082949        0.4830129      -0.4073293      -0.05096961     -0.02515056       0.02647167    -0.005360072
                      0.02690101    -0.005339967      -0.05096599     -0.02516833        0.4830421      -0.4073535      -0.05274356     -0.03066749
                     -0.01428501     0.008255715       0.02659581    -0.004577785      -0.05297041     -0.03154948        0.4874725      -0.3931331
6.048                  0.4930071      -0.3851007      -0.05218916      -0.0313305       0.02624007    -0.004603613      -0.01376098     0.008252781
                      -0.0525475     -0.02994039        0.4822195      -0.4115802      -0.05059087     -0.02434639       0.02613048    -0.005698438
                      0.02655154    -0.005701564       -0.0505874     -0.02436418        0.4822471      -0.4116048      -0.05246146     -0.02980595
                     -0.01403401     0.008437037       0.02626665    -0.004917013      -0.05270442     -0.03068655        0.4869177      -0.3974923
6.0496                 0.4924909      -0.3894775      -0.05192515     -0.03048185       0.02591333    -0.004934547      -0.01351635     0.008414153
                      -0.0522452     -0.02906791          0.48139      -0.4158038      -0.05020586     -0.02355997       0.02578723    -0.006025629
                      0.02619899    -0.006051551      -0.05020251     -0.02357781        0.4814162      -0.4158287      -0.05217088      -0.0289604
                     -0.01378165     0.008611205       0.02593561    -0.005245285      -0.05243018     -0.02983921        0.4863229      -0.4018286
6.0512                 0.4919338      -0.3938313      -0.05165321     -0.02964853       0.02558492     -0.00525469      -0.01327113     0.008568697
                     -0.05193364     -0.02821204        0.4805251           -0.42      -0.04981511     -0.02279113       0.02544224    -0.006341735
                      0.02584369    -0.006389975      -0.04981189     -0.02280901        0.4805499      -0.4200251      -0.05187234     -0.02813076
                     -0.01352815     0.008778242       0.02560303    -0.005562705      -0.05214824     -0.02900736        0.4856889      -0.4061417
6.0528                 0.4913369      -0.3981616      -0.05137384     -0.02883044       0.02525515    -0.005564151      -0.01302553     0.008716483
                     -0.05161335     -0.02737274        0.4796257      -0.4241687      -0.04941912     -0.02203976       0.02509583    -0.006646858
                      0.02548599    -0.006716895      -0.04941605     -0.02205765        0.4796491       -0.424194      -0.05156633     -0.02731695
                     -0.01327372     0.008938193       0.02526921    -0.005869388      -0.05185901     -0.02819092        0.4850162      -0.4104315
6.0544                 0.4907004      -0.4024685       -0.0510875     -0.02802748       0.02492434    -0.005863051      -0.01277974     0.008857573
                     -0.05128483     -0.02655001        0.4786925        -0.42831      -0.04901845     -0.02130562       0.02474834     -0.00694111
                      0.02512625    -0.007032381       -0.0490155     -0.02132355        0.4787146      -0.4283355      -0.05125333     -0.02651889
                     -0.01301855     0.009091103       0.02493448    -0.006165461        -0.051563     -0.02738977        0.4843056      -0.4146979
6.056                  0.4900254      -0.4067517      -0.05079465     -0.02723954       0.02459279     -0.00615152      -0.01253393     0.008992048
                     -0.05094863     -0.02574376        0.4777264      -0.4324239      -0.04861356     -0.02058856       0.02440007    -0.007224611
                      0.02476478    -0.007336514      -0.04861074     -0.02060652        0.4777471      -0.4324494      -0.05093382     -0.02573645
                     -0.01276285     0.009237026       0.02459914    -0.006451055      -0.05126066     -0.02660381        0.4835579      -0.4189408
6.0576                 0.4893125      -0.4110108      -0.05049572     -0.02646647        0.0242608    -0.006429692       -0.0122883     0.009119977
                     -0.05060523     -0.02495395        0.4767281      -0.4365104      -0.04820497     -0.01988836       0.02405133    -0.007497491
                      0.02440193    -0.007629381      -0.04820227     -0.01990635        0.4767474       -0.436536      -0.05060827     -0.02496953
                     -0.01250681     0.009376013       0.02426348    -0.006726315      -0.05095246     -0.02583287        0.4827736      -0.4231599
6.0592                 0.4885625       -0.415246      -0.05019118     -0.02570816       0.02392867    -0.006697718      -0.01204302     0.009241457
                     -0.05025515     -0.02418047        0.4756982      -0.4405697      -0.04779311     -0.01920481       0.02370243    -0.007759888
                      0.02403802    -0.007911082      -0.04779057     -0.01922282        0.4757162      -0.4405952      -0.05027715     -0.02421798
                     -0.01225062     0.009508129       0.02392782    -0.006991391      -0.05063881     -0.02507683        0.4819535      -0.4273552
6.0608                  0.487776       -0.419457      -0.04988144     -0.02496445       0.02359667    -0.006955749      -0.01179827     0.009356565
                     -0.04989886     -0.02342323        0.4746376      -0.4446016       -0.0473785     -0.01853767       0.02335365    -0.008011947
                      0.02367338    -0.008181726      -0.04737608     -0.01855571        0.4746543      -0.4446271       -0.0499409     -0.02348167
                     -0.01199448     0.009633439       0.02359241    -0.007246441      -0.05032017     -0.02433554        0.4810983      -0.4315267
6.0624                 0.4869539      -0.4236436      -0.04956694     -0.02423515       0.02326508     -0.00720395       -0.0115542     0.009465405
                     -0.04953685     -0.02268214         0.473547      -0.4486064      -0.04696156      -0.0178867       0.02300527    -0.008253825
                      0.02330831    -0.008441431      -0.04695926     -0.01790477        0.4735625      -0.4486318      -0.04959995     -0.02276044
                     -0.01173857     0.009752019       0.02325754    -0.007491633      -0.04999694     -0.02360882        0.4802085      -0.4356742
6.064                  0.4860966      -0.4278059      -0.04924805     -0.02352014       0.02293416    -0.007442486        -0.011311     0.009568075
                      -0.0491696     -0.02195704         0.472427      -0.4525841      -0.04654272     -0.01725165       0.02265758    -0.008485682
                      0.02294313    -0.008690323      -0.04654054     -0.01726975        0.4724412      -0.4526094      -0.04925475     -0.02205411
                     -0.01148307     0.009863949       0.02292347    -0.007727138      -0.04966954     -0.02289647         0.479285      -0.4397978
6.0656                  0.485205      -0.4319437      -0.04892519      -0.0228192       0.02260418    -0.007671538      -0.01106881     0.009664673
                     -0.04879756     -0.02124782        0.4712785      -0.4565349       -0.0461224     -0.01663225       0.02231084    -0.008707688
                      0.02257814    -0.008928539      -0.04612036     -0.01665037        0.4712913      -0.4565601      -0.04890569      -0.0213625
                     -0.01122817     0.009969311       0.02259046    -0.007953142      -0.04933836     -0.02219832        0.4783283      -0.4438973
6.0672                 0.4842797      -0.4360569      -0.04859874     -0.02213214       0.02227538    -0.007891287       -0.0108278     0.009755308
                      -0.0484212     -0.02055432        0.4701018      -0.4604589      -0.04570101     -0.01602824       0.02196531     -0.00892002
                      0.02221362    -0.009156221       -0.0456991     -0.01604638        0.4701135      -0.4604839       -0.0485532     -0.02068544
                     -0.01097403      0.01006819       0.02225876    -0.008169831       -0.0490038     -0.02151414        0.4773389      -0.4479728
6.0688                 0.4833215      -0.4401456      -0.04826908     -0.02145875         0.021948    -0.008101923      -0.01058811     0.009840098
                     -0.04804095     -0.01987638        0.4688978      -0.4643564      -0.04527896      -0.0154393       0.02162124    -0.009122864
                      0.02184988    -0.009373524      -0.04527716     -0.01545747        0.4689084       -0.464381      -0.04819764     -0.02002271
                     -0.01072083      0.01016069       0.02192861    -0.008377397      -0.04866622     -0.02084376        0.4763177      -0.4520244
6.0704                 0.4823308      -0.4442097      -0.04793655     -0.02079884       0.02162227    -0.008303643      -0.01034989     0.009919153
                     -0.04765727     -0.01921382        0.4676671      -0.4682272       -0.0448566     -0.01486519       0.02127888    -0.009316408
                      0.02148718    -0.009580606      -0.04485494     -0.01488338        0.4676766      -0.4682516      -0.04783943      -0.0193741
                     -0.01046874       0.0102469       0.02160023    -0.008576042      -0.04832596     -0.02018695        0.4752651      -0.4560518
6.072                  0.4813084      -0.4482491      -0.04760151     -0.02015217       0.02129841    -0.008496646      -0.01011328     0.009992592
                     -0.04727055     -0.01856647        0.4664103      -0.4720718       -0.0444343     -0.01430556       0.02093846    -0.009500847
                       0.0211258    -0.009777633      -0.04443275     -0.01432378        0.4664186      -0.4720959      -0.04747891     -0.01873941
                     -0.01021791      0.01032692       0.02127385     -0.00876597      -0.04798342     -0.01954345        0.4741817      -0.4600552
6.0736                  0.480255      -0.4522639      -0.04726429     -0.01951851       0.02097664    -0.008681138     -0.009878403      0.01006054
                     -0.04688123     -0.01793411        0.4651279      -0.4758902       -0.0440124     -0.01376014        0.0206002    -0.009676387
                      0.02076601    -0.009964781      -0.04401099     -0.01377838        0.4651352       -0.475914      -0.04711644     -0.01811838
                    -0.009968509      0.01040087       0.02094967    -0.008947392      -0.04763887     -0.01891307        0.4730681      -0.4640346
6.0752                  0.479171      -0.4562541      -0.04692522     -0.01889764       0.02065715    -0.008857333     -0.009645406      0.01012312
                      -0.0464897     -0.01731655        0.4638205      -0.4796827      -0.04359125     -0.01322859       0.02026432    -0.009843231
                      0.02040806     -0.01014223      -0.04358995     -0.01324684        0.4638267      -0.4797061      -0.04675238      -0.0175108
                    -0.009720682      0.01046886       0.02062789    -0.009120525      -0.04729267     -0.01829555        0.4719249      -0.4679901
6.0768                 0.4780574      -0.4602197      -0.04658458     -0.01828933       0.02034014    -0.009025445     -0.009414399      0.01018047
                     -0.04609634     -0.01671357        0.4624888      -0.4834495      -0.04317114     -0.01271058       0.01993102     -0.01000159
                       0.0200522     -0.01031018      -0.04316997     -0.01272886        0.4624941      -0.4834724      -0.04638704     -0.01691644
                    -0.009474583      0.01053099       0.02030871    -0.009285586      -0.04694511     -0.01769063        0.4707527      -0.4719218
6.0784                 0.4769143      -0.4641607       -0.0462427      -0.0176933       0.02002579    -0.009185693     -0.009185508      0.01023271
                     -0.04570156     -0.01612494        0.4611333      -0.4871908      -0.04275239     -0.01220582       0.01960051     -0.01015169
                      0.01969867     -0.01046881      -0.04275133     -0.01222412        0.4611375      -0.4872133      -0.04602076       -0.016335
                     -0.00923035      0.01058739       0.01999231    -0.009442802      -0.04659651     -0.01709808        0.4695521      -0.4758295
6.08                   0.4757427      -0.4680772      -0.04589985     -0.01710931       0.01971427    -0.009338303     -0.008958844      0.01027998
                      -0.0453057     -0.01555043        0.4597544      -0.4909068      -0.04233526     -0.01171394       0.01927296     -0.01029374
                       0.0193477     -0.01061833      -0.04233433     -0.01173227        0.4597577      -0.4909287      -0.04565383     -0.01576625
                    -0.008988122      0.01063818       0.01967885    -0.009592397      -0.04624713     -0.01651761        0.4683234      -0.4797136
6.0816                  0.474543      -0.4719692      -0.04555629     -0.01653712       0.01940575    -0.009483499     -0.008734514      0.01032242
                     -0.04490911     -0.01498981        0.4583527      -0.4945978      -0.04192004     -0.01123462       0.01894855     -0.01042797
                      0.01899951     -0.01075894      -0.04191924     -0.01125297        0.4583551      -0.4946192      -0.04528655     -0.01520994
                    -0.008748033      0.01068349        0.0193685    -0.009734605      -0.04589724     -0.01594899        0.4670672      -0.4835739
6.0832                 0.4733157      -0.4758369      -0.04521228     -0.01597644       0.01910038    -0.009621514     -0.008512612      0.01036016
                     -0.04451215      -0.0144428        0.4569287      -0.4982638      -0.04150698     -0.01076752       0.01862746     -0.01055462
                      0.01865431     -0.01089086      -0.04150629     -0.01078589        0.4569301      -0.4982848       -0.0449192      -0.0146658
                    -0.008510211      0.01072345       0.01906141    -0.009869657      -0.04554709     -0.01539191        0.4657842      -0.4874108
6.0848                 0.4720615      -0.4796804      -0.04486806     -0.01542701       0.01879829    -0.009752577     -0.008293248      0.01039335
                     -0.04411515     -0.01390915        0.4554827      -0.5019053      -0.04109631     -0.01031228       0.01830984      -0.0106739
                      0.01831231     -0.01101431      -0.04109574     -0.01033066        0.4554834      -0.5019258      -0.04455204     -0.01413352
                    -0.008274783      0.01075818       0.01875771    -0.009997789      -0.04519694     -0.01484613        0.4644746      -0.4912241
6.0864                 0.4707808      -0.4834996      -0.04452387     -0.01488858       0.01849963    -0.009876925     -0.008076496      0.01042214
                     -0.04371842      -0.0133886        0.4540153      -0.5055225      -0.04068825    -0.009868563       0.01799584     -0.01078606
                      0.01797371     -0.01112949       -0.0406878    -0.009886966        0.4540152      -0.5055424      -0.04418533     -0.01361285
                     -0.00804186      0.01078784       0.01845754     -0.01011924      -0.04484699     -0.01431135        0.4631391      -0.4950142
6.088                  0.4694742      -0.4872948      -0.04417993     -0.01436084       0.01820452    -0.009994792     -0.007862455      0.01044666
                     -0.04332226     -0.01288088         0.452527      -0.5091158      -0.04028301    -0.009436021       0.01768559     -0.01089133
                       0.0176387     -0.01123665      -0.04028268    -0.009454453        0.4525259      -0.5091349       -0.0438193      -0.0131035
                    -0.007811555      0.01081255       0.01816102     -0.01023425      -0.04449749      -0.0137873         0.461778      -0.4987808
6.0896                 0.4681423       -0.491066      -0.04383641     -0.01384354       0.01791306     -0.01010642     -0.007651198      0.01046705
                     -0.04292697      -0.0123857         0.451018      -0.5126849      -0.03988076    -0.009014292       0.01737923     -0.01098996
                      0.01730743     -0.01133601      -0.03988056    -0.009032741        0.4510163      -0.5127037      -0.04345419     -0.01260519
                    -0.007583976      0.01083245       0.01786826     -0.01034306      -0.04414861      -0.0132737        0.4603918      -0.5025244
6.0912                 0.4667853      -0.4948134      -0.04349354      -0.0133364       0.01762537     -0.01021204     -0.007442788      0.01048348
                     -0.04253284     -0.01190277        0.4494888      -0.5162307       -0.0394817    -0.008603029       0.01707687     -0.01108218
                       0.0169801      -0.0114278      -0.03948162    -0.008621505        0.4494865      -0.5162487      -0.04309019     -0.01211763
                    -0.007359226      0.01084769       0.01757935     -0.01044591      -0.04380054     -0.01277027        0.4589811      -0.5062451
6.0928                 0.4654039       -0.498537      -0.04315147     -0.01283912       0.01734153      -0.0103119     -0.007237307      0.01049609
                     -0.04214011     -0.01143181        0.4479398      -0.5197532      -0.03908599    -0.008201884       0.01677862     -0.01116823
                      0.01665684     -0.01151227      -0.03908602    -0.008220371        0.4479369      -0.5197706      -0.04272753     -0.01164053
                    -0.007137393      0.01085841        0.0172944     -0.01054304      -0.04345347     -0.01227671         0.457546      -0.5099428
6.0944                 0.4639988      -0.5022371      -0.04281038     -0.01235144       0.01706162     -0.01040623     -0.007034806      0.01050502
                     -0.04174905     -0.01097253        0.4463715      -0.5232526      -0.03869375     -0.00781049       0.01648458     -0.01124836
                      0.01633782     -0.01158964      -0.03869391    -0.007829008        0.4463679      -0.5232694      -0.04236637     -0.01117358
                    -0.006918578      0.01086476       0.01701347      -0.0106347      -0.04310754     -0.01179274        0.4560872      -0.5136179
6.096                    0.46257      -0.5059138      -0.04247041     -0.01187307       0.01678573     -0.01049528      -0.00683534      0.01051042
                     -0.04135988     -0.01052461        0.4447839      -0.5267292      -0.03830512     -0.00742852       0.01619485     -0.01132281
                      0.01602318     -0.01166018      -0.03830539    -0.007447054        0.4447798      -0.5267454      -0.04200689      -0.0107165
                    -0.006702857      0.01086689       0.01673663     -0.01072112      -0.04276292     -0.01131808         0.454605      -0.5172704
6.0976                 0.4611182      -0.5095673       -0.0421317     -0.01140374        0.0165139     -0.01057928     -0.006638967      0.01051245
                     -0.04097285     -0.01008775        0.4431777      -0.5301834      -0.03792023    -0.007055604       0.01590949     -0.01139183
                      0.01571302     -0.01172411      -0.03792062    -0.007074153        0.4431729      -0.5301989      -0.04164925     -0.01026898
                    -0.006490308      0.01086495       0.01646395     -0.01080256      -0.04241973     -0.01085243        0.4530997      -0.5209005
6.0992                 0.4596438      -0.5131975      -0.04179437     -0.01094316       0.01624621     -0.01065847     -0.006445717      0.01051126
                     -0.04058816    -0.009661662        0.4415528      -0.5336154      -0.03753914    -0.006691379       0.01562857     -0.01145566
                      0.01540749     -0.01178169      -0.03753965    -0.006709958        0.4415475      -0.5336302       -0.0412936    -0.009830747
                    -0.006281008      0.01085909       0.01619548     -0.01087924      -0.04207809     -0.01039551        0.4515717      -0.5245082
6.1008                 0.4581471      -0.5168049      -0.04145854     -0.01049104       0.01598268     -0.01073309     -0.006255642      0.01050698
                     -0.04020602    -0.009246035        0.4399098      -0.5370253      -0.03716196    -0.006335529       0.01535217     -0.01151454
                      0.01510669     -0.01183316      -0.03716259    -0.006354125        0.4399041      -0.5370395      -0.04094007    -0.009401483
                    -0.006075018      0.01084946       0.01593126     -0.01095142      -0.04173812    -0.009947036        0.4500215      -0.5280939
6.1024                 0.4566286      -0.5203895       -0.0411243     -0.01004711       0.01572336     -0.01080338     -0.006068764      0.01049978
                     -0.03982659    -0.008840532        0.4382488      -0.5404136      -0.03678876    -0.005987695       0.01508032     -0.01156872
                      0.01481072     -0.01187879      -0.03678951    -0.006006309        0.4382428      -0.5404272      -0.04058878    -0.008980898
                     -0.00587241      0.01083621       0.01567131     -0.01101931       -0.0413999    -0.009506721        0.4484493      -0.5316576
6.104                  0.4550888      -0.5239515      -0.04079175    -0.009611104       0.01546826     -0.01086956     -0.005885116      0.01048981
                     -0.03945007    -0.008444866        0.4365703      -0.5437805      -0.03641959    -0.005647541       0.01481307     -0.01161844
                      0.01451966      -0.0119188      -0.03642046    -0.005666169        0.4365637      -0.5437934      -0.04023984     -0.00856871
                    -0.005673229      0.01081951       0.01541566     -0.01108318      -0.04106354    -0.009074299        0.4468555      -0.5351994
6.1056                 0.4535277      -0.5274912      -0.04046096    -0.009182744       0.01521742     -0.01093187     -0.005704714       0.0104772
                     -0.03907661    -0.008058703        0.4348742      -0.5471263      -0.03605449    -0.005314717       0.01455045     -0.01166393
                      0.01423361     -0.01195347      -0.03605547    -0.005333383        0.4348674      -0.5471385      -0.03989334    -0.008164603
                     -0.00547753      0.01079951       0.01516433     -0.01114324      -0.04072909    -0.008649467        0.4452403      -0.5387197
6.1072                 0.4519462      -0.5310085      -0.04013199    -0.008761743       0.01497082     -0.01099054     -0.005527574      0.01046211
                     -0.03870634    -0.007681743         0.433161      -0.5504511      -0.03569349     -0.00498891       0.01429248     -0.01170543
                      0.01395262     -0.01198303      -0.03569459    -0.005007586        0.4331539      -0.5504626      -0.03954937    -0.007768305
                    -0.005285355      0.01077635       0.01491731     -0.01119972      -0.04039661    -0.008231958        0.4436041      -0.5422184
6.1088                 0.4503442      -0.5345039      -0.03980491    -0.008347849       0.01472847     -0.01104579     -0.005353707      0.01044469
                     -0.03833942    -0.007313666        0.4314308      -0.5537552      -0.03533659     -0.00466978       0.01403918     -0.01174319
                      0.01367677     -0.01200775      -0.03533782    -0.004688481        0.4314234      -0.5537662      -0.03920799    -0.007379511
                    -0.005096748       0.0107502        0.0146746     -0.01125286      -0.04006615    -0.007821514        0.4419471      -0.5456958
6.1104                 0.4487222      -0.5379773      -0.03947973    -0.007940782       0.01449037     -0.01109785     -0.005183121      0.01042507
                     -0.03797596    -0.006954128        0.4296839      -0.5570391      -0.03498382    -0.004357006       0.01379055     -0.01177744
                      0.01340611     -0.01202787      -0.03498517    -0.004375727        0.4296762      -0.5570493      -0.03886928    -0.006997941
                    -0.004911733      0.01072122       0.01443619     -0.01130287      -0.03973775    -0.007417858        0.4402698      -0.5491521
6.112                  0.4470806      -0.5414293       -0.0391565    -0.007540303       0.01425648     -0.01114694     -0.005015815      0.01040341
                     -0.03761605    -0.006602854        0.4279203      -0.5603027      -0.03463515    -0.004050288       0.01354658     -0.01180839
                      0.01314067     -0.01204364      -0.03463661    -0.004069022        0.4279124      -0.5603122      -0.03853325    -0.006623313
                    -0.004730348      0.01068954       0.01420205     -0.01134998      -0.03941145    -0.007020719        0.4385723      -0.5525874
6.1136                 0.4454196      -0.5448596      -0.03883524    -0.007146142       0.01402679     -0.01119326     -0.004851778      0.01037984
                      -0.0372598    -0.006259519        0.4261403      -0.5635463      -0.03429056     -0.00374929       0.01330727      -0.0118363
                       0.0128805     -0.01205532      -0.03429214    -0.003768049        0.4261324      -0.5635554      -0.03819997    -0.006255347
                    -0.004552605      0.01065534       0.01397215     -0.01139441      -0.03908724    -0.006629835        0.4368549      -0.5560018
6.1152                 0.4437394      -0.5482687      -0.03851595    -0.006758043       0.01380126     -0.01123704     -0.004691007       0.0103545
                      -0.0369073    -0.005923788         0.424344      -0.5667704      -0.03395002    -0.003453724       0.01307258     -0.01186136
                      0.01262561     -0.01206314      -0.03395172    -0.003472499        0.4243359      -0.5667788      -0.03786944    -0.005893757
                    -0.004378522      0.01061876       0.01374646     -0.01143636      -0.03876514    -0.006244951        0.4351175      -0.5593955
6.1168                 0.4420405      -0.5516567      -0.03819863     -0.00637577       0.01357984     -0.01127848     -0.004533476      0.01032754
                     -0.03655859    -0.005595369        0.4225317       -0.569975      -0.03361347    -0.003163295        0.0128425     -0.01188382
                      0.01237602     -0.01206736      -0.03361529    -0.003182092        0.4225234      -0.5699828      -0.03754169    -0.005538292
                    -0.004208114      0.01057995       0.01352492     -0.01147605      -0.03844513    -0.005865823        0.4333611      -0.5627687
6.1184                  0.440323      -0.5550238      -0.03788327    -0.005999058       0.01336249     -0.01131778     -0.004379174      0.01029908
                     -0.03621376    -0.005273941        0.4207034      -0.5731604      -0.03328086     -0.00287771       0.01261697     -0.01190388
                      0.01213174     -0.01206822       -0.0332828    -0.002896533        0.4206949      -0.5731676      -0.03721671     -0.00518866
                    -0.004041388      0.01053908       0.01330748     -0.01151368      -0.03812721    -0.005492218        0.4315853      -0.5661215
6.12                   0.4385872      -0.5583702      -0.03756986     -0.00562772       0.01314914     -0.01135514     -0.004228067      0.01026926
                     -0.03587284    -0.004959196        0.4188589      -0.5763268      -0.03295212    -0.002596691       0.01239597     -0.01192175
                      0.01189276     -0.01206597      -0.03295419     -0.00261553        0.4188507      -0.5763334      -0.03689449    -0.004844619
                    -0.003878332      0.01049628       0.01309408     -0.01154944      -0.03781133    -0.005123886        0.4297905      -0.5694542
6.1216                 0.4368334      -0.5616962      -0.03725834    -0.005261489       0.01293973     -0.01139074     -0.004080129      0.01023822
                     -0.03553585    -0.004650861         0.416999      -0.5794744      -0.03262718    -0.002319955       0.01217943     -0.01193765
                      0.01165908     -0.01206083      -0.03262937    -0.002338825        0.4169905      -0.5794804      -0.03657503    -0.004505904
                    -0.003718953      0.01045171       0.01288466     -0.01158353      -0.03749748    -0.004760591        0.4279766      -0.5727667
6.1232                 0.4350618      -0.5650018       -0.0369487    -0.004900152       0.01273419     -0.01142479     -0.003935328      0.01020607
                     -0.03520283    -0.004348602        0.4151232      -0.5826035      -0.03230593    -0.002047254       0.01196729     -0.01195178
                      0.01143067     -0.01205305      -0.03230824    -0.002066135        0.4151147      -0.5826089      -0.03625828     -0.00417226
                    -0.003563237      0.01040552       0.01267913     -0.01161613      -0.03718561    -0.004402115        0.4261444      -0.5760593
6.1248                 0.4332724      -0.5682873      -0.03664089    -0.004543493       0.01253245     -0.01145746     -0.003793624      0.01017295
                     -0.03487378    -0.004052134        0.4132319       -0.585714      -0.03198829    -0.001778321       0.01175949     -0.01196433
                       0.0112075     -0.01204287      -0.03199073     -0.00179722        0.4132234       -0.585719      -0.03594421    -0.003843448
                    -0.003411163      0.01035784       0.01247741     -0.01164743      -0.03687566    -0.004048242        0.4242936      -0.5793321
6.1264                 0.4314659      -0.5715529      -0.03633483    -0.004191301        0.0123344     -0.01148892     -0.003654966      0.01013898
                      -0.0345487     -0.00376117        0.4113249      -0.5888065      -0.03167415    -0.001512918       0.01155595      -0.0119755
                      0.01098954      -0.0120305      -0.03167671     -0.00153184        0.4113166       -0.588811      -0.03563278    -0.003519233
                    -0.003262714      0.01030883       0.01227941      -0.0116776      -0.03656757    -0.003698751        0.4224245      -0.5825852
6.128                  0.4296421      -0.5747986      -0.03603048    -0.003843385       0.01213997     -0.01151934     -0.003519313      0.01010427
                     -0.03422758    -0.003475417        0.4094027      -0.5918809      -0.03136339    -0.001250806       0.01135658     -0.01198547
                      0.01077674     -0.01201617      -0.03136607    -0.001269748        0.4093943      -0.5918849      -0.03532391    -0.003199374
                    -0.003117864      0.01025863       0.01208504     -0.01170681      -0.03626128    -0.003353449        0.4205374      -0.5858188
6.1296                 0.4278013       -0.578025      -0.03572775    -0.003499539       0.01194906     -0.01154889     -0.003386621      0.01006895
                     -0.03391039    -0.003194594         0.407465      -0.5949375      -0.03105588   -0.0009917504       0.01116131     -0.01199443
                      0.01056906     -0.01200012      -0.03105868     -0.00101071        0.4074567       -0.594941      -0.03501756    -0.002883667
                    -0.002976588      0.01020738        0.0118942     -0.01173523       -0.0359567     -0.00301213        0.4186323      -0.5890331
6.1312                 0.4259436      -0.5812318      -0.03542658    -0.003159575       0.01176156     -0.01157772     -0.003256815      0.01003312
                     -0.03359709    -0.002918438        0.4055118      -0.5979764      -0.03075149   -0.0007355386       0.01097004     -0.01200256
                      0.01036642     -0.01198255      -0.03075442   -0.0007545285        0.4055036      -0.5979793      -0.03471363    -0.002571876
                    -0.002838845       0.0101552       0.01170678       -0.011763      -0.03565375    -0.002674623        0.4167093      -0.5922282
6.1328                 0.4240693      -0.5844195      -0.03512687    -0.002823338       0.01157736     -0.01160599     -0.003129856     0.009996903
                     -0.03328765    -0.002646662        0.4035432      -0.6009977      -0.03045008   -0.0004819755       0.01078266     -0.01201001
                      0.01016875     -0.01196367      -0.03045314   -0.0005009708        0.4035354      -0.6010002      -0.03441207    -0.002263789
                    -0.002704593      0.01010225       0.01152267     -0.01179029      -0.03535235    -0.002340736        0.4147686       -0.595404
6.1344                 0.4221784      -0.5875881      -0.03482854    -0.002490637       0.01139636     -0.01163384     -0.003005669     0.009960392
                       -0.032982     -0.00237901        0.4015594      -0.6040016      -0.03015152   -0.0002308456       0.01059907     -0.01201696
                     0.009976001      -0.0119437       -0.0301547   -0.0002498586        0.4015517      -0.6040037      -0.03411278    -0.001959225
                     -0.00257379      0.01004864       0.01134175     -0.01181722      -0.03505239    -0.002010302        0.4128104      -0.5985608
6.136                  0.4202712      -0.5907379      -0.03453148    -0.002161304       0.01121843     -0.01166139     -0.002884197     0.009923695
                     -0.03268009    -0.002115217        0.3995605      -0.6069883      -0.02985563    1.802779e-05       0.01041916     -0.01202356
                     0.009788073     -0.01192283      -0.02985894   -1.000121e-06        0.3995528        -0.60699      -0.03381566     -0.00165797
                    -0.002446386     0.009994515       0.01116391     -0.01184394      -0.03475378    -0.001683147        0.4108347      -0.6016988
6.1376                 0.4183477      -0.5938689       -0.0342356    -0.001835205       0.01104347     -0.01168879     -0.002765359     0.009886909
                     -0.03238184    -0.001855043        0.3975462      -0.6099578      -0.02956228    0.0002648269       0.01024282     -0.01202996
                     0.009604875     -0.01190127      -0.02956571    0.0002457726        0.3975388      -0.6099592       -0.0335206    -0.001359858
                     -0.00232233     0.009939992       0.01098901     -0.01187058       -0.0344564    -0.001359143        0.4088417      -0.6048179
6.1392                 0.4164081      -0.5969815      -0.03394078    -0.001512187       0.01087132     -0.01171616     -0.002649094     0.009850129
                     -0.03208717     -0.00159824        0.3955166      -0.6129103      -0.02927128    0.0005097035       0.01006993      -0.0120363
                     0.009426315      -0.0118792      -0.02927484    0.0004906258        0.3955095      -0.6129113      -0.03322751    -0.001064697
                    -0.002201567     0.009885195       0.01081693     -0.01189725      -0.03416015     -0.00103812        0.4068315      -0.6079182
6.1408                 0.4144523      -0.6000757      -0.03364692    -0.001192112       0.01070189      -0.0117436     -0.002535321     0.009813445
                     -0.03179598    -0.001344568        0.3934716      -0.6158457      -0.02898248    0.0007528217      0.009900347     -0.01204273
                     0.009252292     -0.01185681      -0.02898617    0.0007337303        0.3934648      -0.6158465      -0.03293626   -0.0007723285
                    -0.002084031     0.009830244       0.01064755     -0.01192407       -0.0338649   -0.0007199485        0.4048041          -0.611
6.1424                 0.4124809      -0.6031516      -0.03335389   -0.0008748591       0.01053501     -0.01177124     -0.002423964     0.009776942
                     -0.03150818    -0.001093803        0.3914116      -0.6187645       -0.0286957    0.0009943153      0.009733961     -0.01204936
                     0.009082694     -0.01183429      -0.02869952    0.0009752131        0.3914049      -0.6187649      -0.03264673   -0.0004825842
                    -0.001969662     0.009775255       0.01048071     -0.01195115      -0.03357054    -0.000404515        0.4027597      -0.6140633
6.144                  0.4104935      -0.6062093      -0.03306159   -0.0005602973       0.01037058     -0.01179916     -0.002314944     0.009740705
                     -0.03122366   -0.0008457188        0.3893363      -0.6216664      -0.02841076      0.00123433      0.009570631     -0.01205633
                     0.008917407     -0.01181179      -0.02841471     0.001215206        0.3893299      -0.6216666      -0.03235881   -0.0001953272
                    -0.001858382      0.00972034       0.01031629     -0.01197858      -0.03327695    -9.16803e-05        0.4006984       -0.617108
6.1456                 0.4084904      -0.6092492      -0.03276987   -0.0002483424       0.01020844     -0.01182746     -0.002208174     0.009704808
                      -0.0309423    -0.000600108        0.3872455      -0.6245516      -0.02812748     0.001472975      0.009410221     -0.01206375
                     0.008756317      -0.0117895      -0.02813157     0.001453826        0.3872393      -0.6245515      -0.03207236    8.959549e-05
                     -0.00175013     0.009665609       0.01015413     -0.01200645      -0.03298398    0.0002186397        0.3986201      -0.6201344
6.1472                 0.4064716      -0.6122712      -0.03247862    6.112945e-05       0.01004845     -0.01185622     -0.002103575     0.009669327
                     -0.03066399   -0.0003567619        0.3851397      -0.6274202      -0.02784569     0.001710357      0.009252594     -0.01207172
                     0.008599292     -0.01176758      -0.02784991     0.001691194        0.3851338      -0.6274199      -0.03178724    0.0003723063
                    -0.001644823     0.009611167      0.009994113     -0.01203486      -0.03269151    0.0005265613        0.3965251      -0.6231424
6.1488                 0.4044374      -0.6152755      -0.03218771    0.0003681961      0.009890474     -0.01188553     -0.002001056     0.009634333
                     -0.03038859   -0.0001154872        0.3830185      -0.6302723       -0.0275652     0.001946583      0.009097605     -0.01208035
                     0.008446201     -0.01174616      -0.02756955     0.001927407        0.3830129      -0.6302717      -0.03150333     0.000652943
                     -0.00154238     0.009557114      0.009836074     -0.01206386      -0.03239941    0.0008321701        0.3944134      -0.6261322
6.1504                 0.4023875      -0.6182622        -0.031897    0.0006729436      0.009734366     -0.01191545     -0.001900533     0.009599885
                     -0.03011597    0.0001239016        0.3808819      -0.6331077      -0.02728582     0.002181735      0.008945109     -0.01208972
                     0.008296914     -0.01172542       -0.0272903     0.002162544        0.3808764       -0.633107      -0.03122047    0.0009316056
                    -0.001442731     0.009503547      0.009679874     -0.01209354      -0.03210754     0.001135552         0.392285      -0.6291038
6.152                  0.4003223      -0.6212314      -0.03160637    0.0009754359      0.009579984     -0.01194605     -0.001801914     0.009566049
                     -0.02984599    0.0003615964        0.3787299      -0.6359265      -0.02700735      0.00241588      0.008794956     -0.01209993
                     0.008151288     -0.01170547      -0.02701197     0.002396677         0.378725      -0.6359258      -0.03093853     0.001208395
                    -0.001345781      0.00945056      0.009525362     -0.01212395      -0.03181576     0.001436771          0.39014      -0.6320572
6.1536                 0.3982415      -0.6241832      -0.03131568     0.001275745       0.00942718     -0.01197737     -0.001705102     0.009532879
                      -0.0295785    0.0005977383        0.3765626       -0.638729      -0.02672963     0.002649099      0.008647003     -0.01211105
                     0.008009179     -0.01168647      -0.02673438     0.002629874         0.376558      -0.6387281      -0.03065736     0.001483419
                     -0.00125144     0.009398243      0.009372393     -0.01215514      -0.03152394     0.001735883        0.3879785      -0.6349925
6.1552                 0.3961456      -0.6271177      -0.03102479     0.001573928      0.009275807     -0.01200947      -0.00161001     0.009500427
                     -0.02931334     0.000832511        0.3743801       -0.641515      -0.02645245     0.002881421      0.008501095     -0.01212315
                     0.007870441     -0.01166852      -0.02645733     0.002862192        0.3743755       -0.641514       -0.0303768     0.001756748
                    -0.001159625      0.00934668      0.009220814     -0.01218716      -0.03123193     0.002032953        0.3858006      -0.6379096
6.1568                 0.3940342      -0.6300351      -0.03073357      0.00187002      0.009125713     -0.01204239     -0.001516541     0.009468739
                     -0.02905037     0.001066055        0.3721821      -0.6442844      -0.02617563     0.003112916       0.00835708     -0.01213629
                     0.007734924     -0.01165176      -0.02618065     0.003093666        0.3721778      -0.6442834      -0.03009672     0.002028461
                    -0.001070236      0.00929595      0.009070478     -0.01222004       -0.0309396     0.002328024        0.3836062      -0.6408088
6.1584                 0.3919077      -0.6329352      -0.03044188     0.002164058      0.008976758     -0.01207616       -0.0014246     0.009437857
                     -0.02878941     0.001298516        0.3699686      -0.6470373      -0.02589897     0.003343592      0.008214803     -0.01215053
                     0.007602468      -0.0116363      -0.02590412     0.003324338        0.3699646      -0.6470363      -0.02981696     0.002298638
                   -0.0009831834      0.00924613      0.008921232     -0.01225382       -0.0306468     0.002621116        0.3813955      -0.6436898
6.16                   0.3897658      -0.6358185      -0.03014959     0.002456071      0.008828793     -0.01211079     -0.001334097     0.009407822
                      -0.0285303     0.001530013        0.3677397      -0.6497737       -0.0256223      0.00357348      0.008074115     -0.01216591
                     0.007472921     -0.01162223      -0.02562759     0.003554207        0.3677361      -0.6497727      -0.02953735     0.002567319
                   -0.0008983701     0.009197292      0.008772933     -0.01228851       -0.0303534     0.002912267        0.3791685      -0.6465527
6.1616                 0.3876088      -0.6386847      -0.02985657     0.002746074       0.00868167     -0.01214631     -0.001244927     0.009378663
                     -0.02827288     0.001760683        0.3654953      -0.6524935      -0.02534541     0.003802579      0.007934856     -0.01218247
                     0.007346118     -0.01160965      -0.02535085     0.003783298        0.3654919      -0.6524925      -0.02925776     0.002834563
                   -0.0008156909     0.009149504      0.008625424     -0.01232413      -0.03005927      0.00320149        0.3769254      -0.6493977
6.1632                 0.3854366       -0.641534      -0.02956267     0.003034075      0.008535242     -0.01218274        -0.001157     0.009350413
                     -0.02801697     0.001990638        0.3632355      -0.6551967      -0.02506815     0.004030894      0.007796876     -0.01220025
                     0.007221898     -0.01159865      -0.02507373     0.004011606        0.3632324      -0.6551958      -0.02897803      0.00310039
                   -0.0007350516     0.009102827      0.008478565     -0.01236069      -0.02976425     0.003488786        0.3746658      -0.6522245
6.1648                 0.3832493      -0.6443664      -0.02926777     0.003320092      0.008389368     -0.01222005     -0.001070215     0.009323094
                      -0.0277624     0.002219965        0.3609601      -0.6578832      -0.02479032      0.00425841      0.007660022     -0.01221927
                     0.007100097     -0.01158932      -0.02479604     0.004239116        0.3609572      -0.6578824      -0.02869801     0.003364852
                   -0.0006563436     0.009057319      0.008332209     -0.01239818      -0.02946822     0.003774158        0.3723903      -0.6550334
6.1664                 0.3810468       -0.647182      -0.02897174     0.003604097      0.008243904     -0.01225827    -0.0009844824     0.009296725
                     -0.02750898      0.00244876        0.3586692      -0.6605532      -0.02451174     0.004485116      0.007524134     -0.01223954
                     0.006980548     -0.01158172      -0.02451759     0.004465814        0.3586666      -0.6605524      -0.02841753     0.003627955
                   -0.0005794683     0.009013034      0.008186208     -0.01243659      -0.02917105     0.004057594        0.3700987      -0.6578241
6.168                  0.3788293      -0.6499808      -0.02867446     0.003886074      0.008098708     -0.01229736    -0.0008996962     0.009271325
                     -0.02725655      0.00267711        0.3563628      -0.6632062      -0.02423224     0.004710962      0.007389064     -0.01226108
                      0.00686308     -0.01157592      -0.02423824     0.004691648        0.3563604      -0.6632055      -0.02813647       0.0038897
                    -0.000504317     0.008970023      0.008040424     -0.01247592      -0.02887259      0.00433908        0.3677911      -0.6605967
6.1696                 0.3765964      -0.6527629      -0.02837579     0.004166006      0.007953644     -0.01233732    -0.0008157681     0.009246901
                     -0.02700491     0.002905075         0.354041      -0.6658424      -0.02395165     0.004935916      0.007254665     -0.01228389
                     0.006747528     -0.01157198      -0.02395779     0.004916596        0.3540387      -0.6658418      -0.02785465     0.004150111
                   -0.0004307869     0.008928327      0.007894712     -0.01251613      -0.02857273     0.004618582        0.3654672      -0.6633512
6.1712                 0.3743487      -0.6555282      -0.02807562     0.004443861      0.007808569     -0.01237811    -0.0007325965      0.00922346
                     -0.02675388     0.003132741        0.3517034      -0.6684615      -0.02366981     0.005159926      0.007120777     -0.01230796
                     0.006633715     -0.01156995      -0.02367609     0.005140598        0.3517016      -0.6684611      -0.02757195     0.004409154
                   -0.0003587675     0.008887986      0.007748937      -0.0125572      -0.02827135     0.004896066        0.3631278      -0.6660875
6.1728                 0.3720858      -0.6582768      -0.02777383     0.004719591       0.00766336      -0.0124197    -0.0006500903     0.009201007
                     -0.02650329      0.00336014        0.3493506      -0.6710637      -0.02338655     0.005382917      0.006987261     -0.01233328
                     0.006521478     -0.01156986      -0.02339297     0.005363593        0.3493487      -0.6710635      -0.02728821     0.004666831
                   -0.0002881501     0.008849036       0.00760297     -0.01259909      -0.02796831     0.005171489        0.3607723      -0.6688056
6.1744                 0.3698077      -0.6610087       -0.0274703     0.004993153      0.007517876     -0.01246206    -0.0005681542     0.009179539
                     -0.02625294     0.003587318         0.346982      -0.6736487      -0.02310171     0.005604839      0.006853966     -0.01235982
                     0.006410638     -0.01157176      -0.02310827     0.005585515        0.3469804      -0.6736487      -0.02700328     0.004923111
                   -0.0002188332     0.008811506      0.007456667     -0.01264176      -0.02766352     0.005444797        0.3584009      -0.6715054
6.176                  0.3675148      -0.6637238      -0.02716492     0.005264494      0.007371995     -0.01250513    -0.0004866962     0.009159049
                     -0.02600266     0.003814304         0.344598      -0.6762164      -0.02281514     0.005825604       0.00672075     -0.01238757
                     0.006301029     -0.01157566      -0.02282186     0.005806275        0.3445966      -0.6762167      -0.02671704     0.005177956
                      -0.0001507     0.008775423       0.00730991     -0.01268516      -0.02735683      0.00571594        0.3560139      -0.6741869
6.1776                 0.3652066      -0.6664222      -0.02685759     0.005533546      0.007225593     -0.01254887    -0.0004056252     0.009139527
                     -0.02575226     0.004041124        0.3421985      -0.6787667      -0.02252671     0.006045121      0.006587467      -0.0124165
                     0.006192483      -0.0115816      -0.02253357     0.006025786        0.3421974      -0.6787673      -0.02642934     0.005431335
                   -8.364772e-05     0.008740805      0.007162572     -0.01272924      -0.02704817     0.005984846        0.3536111        -0.67685
6.1792                 0.3628834      -0.6691039      -0.02654821     0.005800245       0.00707855     -0.01259321    -0.0003248468     0.009120956
                     -0.02550157     0.004267794        0.3397836      -0.6812995      -0.02223626     0.006263292      0.006453987     -0.01244655
                     0.006084819     -0.01158957      -0.02224327     0.006243955        0.3397826      -0.6813005      -0.02614005     0.005683198
                    -1.75667e-05      0.00870767      0.007014528     -0.01277392      -0.02673741     0.006251435        0.3511927      -0.6794947
6.1808                 0.3605453      -0.6717687      -0.02623668     0.006064506      0.006930746      -0.0126381    -0.0002442783     0.009103322
                     -0.02525038     0.004494311        0.3373534      -0.6838146      -0.02194368     0.006480018      0.006320173     -0.01247768
                     0.005977879     -0.01159958      -0.02195083     0.006460689        0.3373524      -0.6838159      -0.02584905      0.00593347
                    4.765351e-05     0.008676029      0.006865666     -0.01281916      -0.02642446     0.006515651        0.3487589      -0.6821208
6.1824                  0.358192      -0.6744167      -0.02592291     0.006326256       0.00678207     -0.01268346    -0.0001638271     0.009086601
                     -0.02499855     0.004720671        0.3349078      -0.6863121      -0.02164882     0.006695191      0.006185888     -0.01250985
                     0.005871489     -0.01161162      -0.02165612     0.006675859        0.3349068      -0.6863136      -0.02555621     0.006182108
                    0.0001121219     0.008645888      0.006715878     -0.01286486      -0.02610923     0.006777378        0.3463094      -0.6847283
6.184                  0.3558239      -0.6770478      -0.02560681     0.006585407      0.006632416     -0.01272922    -8.341263e-05     0.009070765
                     -0.02474588     0.004946857        0.3324467      -0.6887916      -0.02135157     0.006908685      0.006051015     -0.01254299
                     0.005765485      -0.0116257      -0.02135902      0.00688936        0.3324457      -0.6887934      -0.02526141     0.006429026
                    0.0001759419     0.008617251      0.006565048     -0.01291096      -0.02579163      0.00703655        0.3438445      -0.6873172
6.1856                 0.3534406      -0.6796621      -0.02528831     0.006841854      0.006481682      -0.0127753    -2.946424e-06     0.009055787
                     -0.02449219     0.005172846        0.3299702       -0.691253      -0.02105183     0.007120375      0.005915418     -0.01257704
                     0.005659702     -0.01164177      -0.02105943     0.007101051        0.3299694      -0.6912552      -0.02496454     0.006674148
                    0.0002392218     0.008590114      0.006413074     -0.01295737      -0.02547158     0.007293054        0.3413643      -0.6898872
6.1872                 0.3510424      -0.6822594      -0.02496733      0.00709551      0.006329772      -0.0128216      7.76458e-05     0.009041631
                     -0.02423733     0.005398601        0.3274787      -0.6936963      -0.02074948     0.007330137      0.005778978     -0.01261193
                     0.005553978     -0.01165983      -0.02075723     0.007310819        0.3274778      -0.6936986      -0.02466549     0.006917391
                    0.0003020707     0.008564471      0.006259865       -0.013004      -0.02514901     0.007546799        0.3388687      -0.6924383
6.1888                 0.3486291      -0.6848396       -0.0246438     0.007346262      0.006176586     -0.01286805     0.0001584503     0.009028259
                     -0.02398111     0.005624073        0.3249719       -0.696121      -0.02044444      0.00753782      0.005641588     -0.01264759
                     0.005448154     -0.01167983      -0.02045233     0.007518514        0.3249712      -0.6961238      -0.02436415     0.007158657
                     0.000364588     0.008540309      0.006105326     -0.01305077      -0.02482384     0.007797662         0.336358      -0.6949706
6.1904                 0.3462012      -0.6874027      -0.02431766     0.007594001      0.006022041     -0.01291455     0.0002395392     0.009015634
                     -0.02372338     0.005849218        0.3224502      -0.6985273       -0.0201366     0.007743292      0.005503134     -0.01268392
                     0.005342068     -0.01170173      -0.02014465     0.007723995        0.3224494      -0.6985304      -0.02406044     0.007397844
                    0.0004268799     0.008517614      0.005949367     -0.01309756      -0.02449601     0.008045537        0.3338323      -0.6974837
6.192                   0.343758      -0.6899488      -0.02398887     0.007838615      0.005866054       -0.012961      0.000320988     0.009003711
                     -0.02346397     0.006073979        0.3199133      -0.7009149       -0.0198259     0.007946402      0.005363504     -0.01272085
                     0.005235567     -0.01172549       -0.0198341     0.007927115        0.3199125      -0.7009184      -0.02375424     0.007634861
                    0.0004890518     0.008496366      0.005791906     -0.01314428      -0.02416547      0.00829031        0.3312914      -0.6999776
6.1936                    0.3413      -0.6924775      -0.02365736     0.008079991      0.005708549     -0.01300729     0.0004028665     0.008992443
                     -0.02320273     0.006298277        0.3173617      -0.7032835      -0.01951226     0.008146995      0.005222606     -0.01275828
                     0.005128506     -0.01175105      -0.01952061     0.008127713        0.3173607      -0.7032875       -0.0234455     0.007869586
                    0.0005511994      0.00847654      0.005632874     -0.01319082      -0.02383217      0.00853186        0.3287357      -0.7024524
6.1952                 0.3388271      -0.6949889       -0.0233231     0.008317998      0.005549449     -0.01305332     0.0004852436     0.008981777
                     -0.02293951     0.006522041        0.3147953      -0.7056331      -0.01919563     0.008344907      0.005080338     -0.01279612
                     0.005020729     -0.01177836      -0.01920413     0.008325635         0.314794      -0.7056375      -0.02313412     0.008101918
                    0.0006134253     0.008458109      0.005472193     -0.01323708      -0.02349607     0.008770042        0.3261652      -0.7049077
6.1968                 0.3363394      -0.6974828      -0.02298605     0.008552517      0.005388701     -0.01309898     0.0005681889     0.008971665
                     -0.02267415     0.006745184        0.3122138      -0.7079635      -0.01887594     0.008539983      0.004936612     -0.01283427
                     0.004912097     -0.01180734      -0.01888459     0.008520721        0.3122129      -0.7079682      -0.02282003     0.008331709
                    0.0006758191     0.008441038      0.005309802     -0.01328294      -0.02315714     0.009004753          0.32358      -0.7073435
6.1984                  0.333837      -0.6999593      -0.02264621     0.008783411      0.005226236     -0.01314416      0.000651758     0.008962049
                     -0.02240651     0.006967615        0.3096182      -0.7102744      -0.01855316     0.008732047      0.004791339     -0.01287262
                     0.004802467     -0.01183791      -0.01856196     0.008712811        0.3096168      -0.7102796      -0.02250317     0.008558863
                    0.0007384873     0.008425293      0.005145647     -0.01332828      -0.02281535     0.009235846          0.32098      -0.7097597
6.2                    0.3313199       -0.702418      -0.02230353     0.009010561      0.005062009     -0.01318874      0.000736018      0.00895287
                     -0.02213647     0.007189227         0.307008      -0.7125659      -0.01822725     0.008920944      0.004644443     -0.01291107
                     0.004691705     -0.01187001       -0.0182362     0.008901717        0.3070066      -0.7125715      -0.02218349     0.008783231
                    0.0008015112     0.008410833      0.004979676     -0.01337299      -0.02247067     0.009463188        0.3183658      -0.7121561
6.2016                 0.3287878       -0.704859      -0.02195802     0.009233814      0.004895964     -0.01323261     0.0008210219      0.00894407
                     -0.02186388     0.007409919        0.3043833      -0.7148376      -0.01789818      0.00910649      0.004495853     -0.01294951
                     0.004579679     -0.01190354      -0.01790729     0.009087283        0.3043816      -0.7148435      -0.02186093     0.009004693
                     0.000864991     0.008397614      0.004811839     -0.01341694      -0.02212311     0.009686646        0.3157373      -0.7145326
6.2032                 0.3262413      -0.7072822      -0.02160966     0.009453059       0.00472807     -0.01327563     0.0009068211     0.008935582
                     -0.02158863      0.00762958        0.3017447      -0.7170892      -0.01756595     0.009288513      0.004345492     -0.01298781
                     0.004466264     -0.01193842       -0.0175752     0.009269329         0.301743      -0.7170956      -0.02153544     0.009223092
                    0.0009290082     0.008385587        0.0046421     -0.01346001      -0.02177267     0.009906068        0.3130946      -0.7168892
6.2048                 0.3236802      -0.7096874      -0.02125847     0.009668141      0.004558284      -0.0133177     0.0009934658     0.008927344
                      -0.0213106     0.007848075         0.299092      -0.7193208      -0.01723053     0.009466845      0.004193309     -0.01302586
                     0.004351337     -0.01197454      -0.01723994     0.009447676        0.2990899      -0.7193276        -0.021207     0.009438315
                    0.0009936509     0.008374702      0.004470432     -0.01350208      -0.02141932      0.01012133        0.3104376      -0.7192256
6.2064                 0.3211044      -0.7120744      -0.02090446     0.009878927       0.00438659     -0.01335867      0.001081005     0.008919287
                     -0.02102966     0.008065294        0.2964254      -0.7215321      -0.01689195       0.0096413      0.004039243     -0.01306355
                     0.004234774     -0.01201181       -0.0169015     0.009622154        0.2964231      -0.7215394      -0.02087557     0.009650202
                        0.001059     0.008364903      0.004296804     -0.01354302      -0.02106311      0.01033228        0.3077668      -0.7215419
6.208                  0.3185143      -0.7144433      -0.02054763      0.01008527      0.004212956     -0.01339844      0.001169482     0.008911342
                     -0.02074573     0.008281092        0.2937453      -0.7237229       -0.0165502     0.009811704      0.003883247     -0.01310074
                     0.004116478     -0.01205012      -0.01655991     0.009792576        0.2937425      -0.7237306      -0.02054115     0.009858601
                     0.001125137     0.008356133        0.0041212      -0.0135827      -0.02070404      0.01053878        0.3050822      -0.7238378
6.2096                 0.3159096      -0.7167937      -0.02018803      0.01028705      0.004037375     -0.01343687      0.001258934     0.008903439
                      -0.0204587     0.008495334        0.2910516      -0.7258931      -0.01620531     0.009977871      0.003725277     -0.01313731
                      0.00399633     -0.01208935      -0.01621517     0.009958768        0.2910484      -0.7259011      -0.02020371      0.01006338
                      0.00119214     0.008348329      0.003943605     -0.01362099      -0.02034215      0.01074067         0.302384      -0.7261131
6.2112                  0.313291      -0.7191256       -0.0198257       0.0104841       0.00385984     -0.01347383      0.001349399     0.008895504
                     -0.02016848     0.008707882        0.2883444      -0.7280424      -0.01585733      0.01013963      0.003565299     -0.01317313
                     0.003874232     -0.01212939      -0.01586734      0.01012055        0.2883409      -0.7280509      -0.01986326      0.01026438
                     0.001260081     0.008341429      0.003764018     -0.01365776      -0.01997747      0.01093783        0.2996724       -0.728368
6.2128                 0.3106579      -0.7214389      -0.01946066       0.0106763       0.00368034      -0.0135092      0.001440905     0.008887463
                     -0.01987499     0.008918578        0.2856244      -0.7301708      -0.01550627       0.0102968      0.003403279     -0.01320807
                     0.003750094     -0.01217013      -0.01551643      0.01027774        0.2856205      -0.7301796      -0.01951979      0.01046146
                      0.00132903     0.008335362      0.003582437     -0.01369287      -0.01961005       0.0111301        0.2969476       -0.730602
6.2144                 0.3080106      -0.7237335      -0.01909298       0.0108635      0.003498896     -0.01354285      0.001533483     0.008879242
                     -0.01957815     0.009127267        0.2828912       -0.732278      -0.01515221      0.01044919      0.003239196     -0.01324201
                     0.003623824     -0.01221142      -0.01516252      0.01043017        0.2828871      -0.7322872      -0.01917333      0.01065445
                      0.00139906      0.00833006      0.003398876     -0.01372621      -0.01923994      0.01131735        0.2942096      -0.7328152
6.216                  0.3053493      -0.7260091      -0.01872271      0.01104557      0.003315508     -0.01357464       0.00162716     0.008870765
                     -0.01927789     0.009333803        0.2801457      -0.7343639      -0.01479519      0.01059665      0.003073035      -0.0132748
                     0.003495339     -0.01225316      -0.01480566      0.01057765        0.2801407      -0.7343734      -0.01882389       0.0108432
                     0.001470226      0.00832545      0.003213342     -0.01375764       -0.0188672      0.01149943        0.2914586      -0.7350075
6.2176                 0.3026741      -0.7282656      -0.01834993      0.01122236      0.003130201     -0.01360446      0.001721949     0.008861952
                     -0.01897417     0.009538005        0.2773875      -0.7364282       -0.0144353      0.01073898      0.002904786     -0.01330632
                     0.003364566     -0.01229519      -0.01444592      0.01072001        0.2773821      -0.7364381       -0.0184715      0.01102758
                     0.001542594     0.008321457      0.003025863     -0.01378703       -0.0184919       0.0116762        0.2886948      -0.7371785
6.2192                 0.2999852       -0.730503      -0.01797471      0.01139374         0.002943     -0.01363217      0.001817881     0.008852727
                     -0.01866692     0.009739728        0.2746173       -0.738471      -0.01407262      0.01087602      0.002734443     -0.01333644
                     0.003231426      -0.0123374      -0.01408339      0.01085708        0.2746114      -0.7384811      -0.01811621       0.0112074
                     0.001616219        0.008318      0.002836471     -0.01381424      -0.01811412      0.01184752        0.2859188      -0.7393284
6.2208                 0.2972824       -0.732721      -0.01759711      0.01155958      0.002753938     -0.01365765      0.001914954      0.00884301
                      -0.0183561      0.00993879        0.2718348      -0.7404919      -0.01370722      0.01100759      0.002562012     -0.01336502
                      0.00309587     -0.01237963      -0.01371814      0.01098869        0.2718284      -0.7405024      -0.01775805      0.01138255
                     0.001691158     0.008315003      0.002645191     -0.01383916      -0.01773394      0.01201325        0.2831301       -0.741457
6.2224                 0.2945662      -0.7349194      -0.01721724      0.01171975      0.002563052     -0.01368076      0.002013188     0.008832724
                     -0.01804168      0.01013502        0.2690408      -0.7424908      -0.01333921      0.01113354      0.002387505     -0.01339192
                     0.002957827     -0.01242176      -0.01335028      0.01111467        0.2690338      -0.7425016      -0.01739707      0.01155284
                     0.001767457      0.00831238      0.002452069     -0.01386165      -0.01735146      0.01217327        0.2803293      -0.7435641
6.224                  0.2918365      -0.7370982      -0.01683521      0.01187412      0.002370386      -0.0137014      0.002112581     0.008821788
                     -0.01772363      0.01032824        0.2662354      -0.7444676      -0.01296871      0.01125369      0.002210937     -0.01341701
                     0.002817255     -0.01246363      -0.01297993      0.01123485        0.2662276      -0.7444787      -0.01703335      0.01171815
                     0.001845162     0.008310049      0.002257157      -0.0138816      -0.01696677      0.01232743        0.2775166      -0.7456496
6.2256                 0.2890936      -0.7392572       -0.0164511      0.01202256      0.002175994     -0.01371943      0.002213142     0.008810123
                     -0.01740195      0.01051829        0.2634186      -0.7464222      -0.01259582      0.01136788      0.002032327     -0.01344017
                     0.002674105      -0.0125051      -0.01260719      0.01134908        0.2634103      -0.7464336      -0.01666695      0.01187831
                     0.001924314     0.008307922      0.002060509     -0.01389887      -0.01657998      0.01247562        0.2746922      -0.7477134
6.2272                 0.2863376      -0.7413962      -0.01606503      0.01216495      0.001979934     -0.01373474      0.002314867     0.008797649
                     -0.01707661      0.01070497        0.2605909      -0.7483545      -0.01222067      0.01147596      0.001851712     -0.01346125
                     0.002528347     -0.01254602      -0.01223219       0.0114572         0.260582      -0.7483661      -0.01629795      0.01203317
                     0.002004954     0.008305915      0.001862183     -0.01391334       -0.0161912       0.0126177        0.2718562      -0.7497555
6.2288                 0.2835684      -0.7435151      -0.01567711      0.01230117       0.00178227     -0.01374721      0.002417746     0.008784289
                     -0.01674761      0.01088812        0.2577525      -0.7502642       -0.0118434      0.01157778      0.001669124     -0.01348014
                     0.002379946     -0.01258624      -0.01185506      0.01155906        0.2577431       -0.750276      -0.01592645      0.01218261
                     0.002087115     0.008303935      0.001662249     -0.01392491      -0.01580056      0.01275356        0.2690092      -0.7517755
6.2304                 0.2807864      -0.7456138      -0.01528749      0.01243112      0.001583067     -0.01375672      0.002521771      0.00876996
                     -0.01641498      0.01106755         0.254904      -0.7521513      -0.01146414      0.01167319      0.001484611     -0.01349669
                     0.002228881     -0.01262562      -0.01147596      0.01165451        0.2548938      -0.7521633      -0.01555252      0.01232646
                     0.002170827     0.008301893      0.001460775     -0.01393345      -0.01540818      0.01288309        0.2661508      -0.7537737
6.232                  0.2779919       -0.747692      -0.01489628      0.01255467      0.001382409     -0.01376316       0.00262693     0.008754587
                     -0.01607871      0.01124307        0.2520453      -0.7540157      -0.01108306      0.01176206      0.001298222     -0.01351079
                      0.00207514       -0.012664      -0.01109502      0.01174341        0.2520343      -0.7540279      -0.01517627       0.0124646
                     0.002256114     0.008299696      0.001257851     -0.01393885       -0.0150142      0.01300617         0.263282      -0.7557498
6.2336                 0.2751848      -0.7497497      -0.01450363      0.01267174      0.001180377     -0.01376644      0.002733206     0.008738092
                     -0.01573886      0.01141451        0.2491768      -0.7558573       -0.0107003      0.01184424      0.001110008      -0.0135223
                     0.001918705     -0.01270123      -0.01071241      0.01182563        0.2491652      -0.7558696      -0.01479781      0.01259689
                     0.002342999     0.008297255      0.001053552     -0.01394101      -0.01461877      0.01312268        0.2604023      -0.7577037
6.2352                 0.2723654      -0.7517867      -0.01410968       0.0127822     0.0009770507     -0.01376643      0.002840581     0.008720396
                     -0.01539545      0.01158169        0.2462989      -0.7576761      -0.01031603       0.0119196     0.0009200284     -0.01353112
                     0.001759585     -0.01273715      -0.01032829      0.01190104        0.2462866      -0.7576883      -0.01441727       0.0127232
                     0.002431499     0.008294474     0.0008479769     -0.01393981      -0.01422202      0.01323254        0.2575126      -0.7596353
6.2368                 0.2695338      -0.7538027      -0.01371458      0.01288598     0.0007725282     -0.01376304      0.002949024     0.008701427
                     -0.01504853      0.01174442         0.243412      -0.7594716     -0.009930425      0.01198803     0.0007283632      -0.0135371
                      0.00159778     -0.01277162     -0.009942833      0.01196951         0.243399      -0.7594841      -0.01403474       0.0128434
                      0.00252163      0.00829126     0.0006412144     -0.01393516      -0.01382411      0.01333565        0.2546128      -0.7615446
6.2384                 0.2666905      -0.7557979      -0.01331849      0.01298298     0.0005669069     -0.01375618      0.003058511     0.008681107
                     -0.01469813      0.01190252        0.2405161      -0.7612442     -0.009543677      0.01204941     0.0005350759     -0.01354015
                       0.0014333     -0.01280448     -0.009556228      0.01203093        0.2405023      -0.7612566      -0.01365038      0.01295736
                     0.002613399     0.008287516     0.0004333719     -0.01392696      -0.01342521      0.01343191        0.2517031      -0.7634314
6.24                   0.2638354      -0.7577719      -0.01292155      0.01307313     0.0003602889     -0.01374574      0.003169007     0.008659365
                     -0.01434435      0.01205582        0.2376119      -0.7629935     -0.009155957      0.01210363      0.000340255     -0.01354014
                     0.001266172     -0.01283558      -0.00916865       0.0120852         0.237597       -0.763006      -0.01326433      0.01306496
                     0.002706809     0.008283151     0.0002245512     -0.01391511      -0.01302547      0.01352125         0.248784      -0.7652957
6.2416                 0.2609689      -0.7597246      -0.01252397      0.01315633     0.0001527872     -0.01373165      0.003280485     0.008636127
                     -0.01398724      0.01220414        0.2346994      -0.7647197     -0.008767466      0.01215058     0.0001439808     -0.01353696
                     0.001096419     -0.01286476     -0.008780306       0.0121322        0.2346838      -0.7647321      -0.01287671      0.01316611
                     0.002801867     0.008278067     1.486795e-05     -0.01389954      -0.01262507      0.01360358        0.2458556      -0.7671375
6.2432                  0.258091      -0.7616559      -0.01212588      0.01323253    -5.549138e-05     -0.01371381      0.003392895     0.008611326
                     -0.01362689       0.0123473        0.2317791      -0.7664225     -0.008378404      0.01219018    -5.365542e-05     -0.01353052
                    0.0009240712     -0.01289188     -0.008391384      0.01217185        0.2317628       -0.766435      -0.01248769      0.01326067
                     0.002898563     0.008272173    -0.0001955648     -0.01388015      -0.01222419      0.01367883         0.242918      -0.7689568
6.2448                 0.2552019      -0.7635657      -0.01172748      0.01330166    -0.0002644263     -0.01369216      0.003506207      0.00858489
                     -0.01326338      0.01248513        0.2288514      -0.7681021     -0.007988971      0.01222235    -0.0002525546      -0.0135207
                    0.0007491755     -0.01291679     -0.008002101      0.01220405        0.2288341      -0.7681144      -0.01209741      0.01334856
                     0.002996894      0.00826537    -0.0004066171     -0.01385687      -0.01182299      0.01374695        0.2399721      -0.7707531
6.2464                 0.2523021      -0.7654539      -0.01132894      0.01336366       -0.0004739      -0.0136666      0.003620369     0.008556755
                     -0.01289681      0.01261746        0.2259164      -0.7697583     -0.007599379        0.012247    -0.0004526196      -0.0135074
                    0.0005717785     -0.01293933     -0.007612654      0.01222875        0.2258984      -0.7697706      -0.01170605      0.01342968
                      0.00309685     0.008257562    -0.0006181751     -0.01382963      -0.01142167      0.01380786        0.2370175       -0.772527
6.248                   0.249392      -0.7673203      -0.01093045      0.01341849    -0.0006837784     -0.01363709      0.003735336     0.008526856
                     -0.01252729      0.01274413        0.2229746      -0.7713912     -0.007209854      0.01226406    -0.0006537364     -0.01349053
                    0.0003919323     -0.01295938     -0.007223266      0.01224586        0.2229557      -0.7714033      -0.01131377      0.01350393
                     0.003198409     0.008248663    -0.0008301052     -0.01379836      -0.01102041      0.01386153        0.2340548      -0.7742782
6.2496                 0.2464711      -0.7691647       -0.0105322      0.01346611    -0.0008939406     -0.01360355      0.003851054      0.00849513
                     -0.01215493      0.01286496        0.2200265      -0.7730006     -0.006820603      0.01227348    -0.0008557995     -0.01347001
                    0.0002096948     -0.01297677     -0.006834155      0.01225533        0.2200067      -0.7730125      -0.01092075      0.01357123
                     0.003301558     0.008238574     -0.001042271     -0.01376299      -0.01061941      0.01390791        0.2310845      -0.7760063
6.2512                 0.2435403      -0.7709873      -0.01013438      0.01350646      -0.00110425     -0.01356593      0.003967476     0.008461516
                     -0.01177986      0.01297981         0.217072      -0.7745867     -0.006431853       0.0122752      -0.00105869     -0.01344575
                    2.513886e-05     -0.01299137     -0.006445547       0.0122571        0.2170513      -0.7745983      -0.01052715       0.0136315
                     0.003406269     0.008227204     -0.001254538     -0.01372347      -0.01021888      0.01394696        0.2281065      -0.7777117
6.2528                 0.2405995      -0.7727877     -0.009737181      0.01353954     -0.001314566     -0.01352418      0.004084536      0.00842596
                      -0.0114022      0.01308851         0.214112      -0.7761494     -0.006043839      0.01226919     -0.001262288     -0.01341766
                   -0.0001616633     -0.01300305     -0.006057672      0.01225114        0.2140906      -0.7761607      -0.01013318      0.01368469
                     0.003512513     0.008214462     -0.001466769     -0.01367976     -0.009818981      0.01397866        0.2251211      -0.7793944
6.2544                 0.2376495      -0.7745658     -0.009340798      0.01356532     -0.001524757     -0.01347824      0.004202179     0.008388403
                     -0.01102208      0.01319092        0.2111465      -0.7776887     -0.005656788      0.01225541     -0.001466467     -0.01338568
                   -0.0003506276     -0.01301166     -0.005670764      0.01223741        0.2111242      -0.7776998     -0.009739004       0.0137307
                     0.003620265     0.008200257     -0.001678818      -0.0136318      -0.00941995      0.01400299        0.2221289      -0.7810543
6.256                    0.23469      -0.7763218     -0.008945446      0.01358379     -0.001734676     -0.01342809      0.004320343     0.008348795
                     -0.01063967      0.01328689         0.208176      -0.7792047     -0.005270937      0.01223384     -0.001671097     -0.01334973
                   -0.0005416739     -0.01301707     -0.005285045      0.01221589        0.2081527      -0.7792156     -0.009344824      0.01376951
                     0.003729481     0.008184502     -0.001890542     -0.01357957      -0.00902197      0.01401993        0.2191299      -0.7826912
6.2576                 0.2317214      -0.7780552     -0.008551314      0.01359495     -0.001944178     -0.01337368      0.004438967     0.008307084
                     -0.01025511      0.01337628        0.2052009      -0.7806974     -0.004886518      0.01220447     -0.001876052     -0.01330975
                    -0.000734704     -0.01301916     -0.004900772      0.01218657        0.2051767      -0.7807078     -0.008950836      0.01380105
                     0.003840125     0.008167108     -0.002101792     -0.01352302     -0.008625258      0.01402949        0.2161247      -0.7843053
6.2592                  0.228744      -0.7797663     -0.008158607       0.0135988     -0.002153119     -0.01331499      0.004557979     0.008263225
                    -0.009868563      0.01345895        0.2022212      -0.7821669     -0.004503781      0.01216729     -0.002081188     -0.01326568
                   -0.0009296207     -0.01301781     -0.004518167      0.01214944        0.2021963      -0.7821769     -0.008557247      0.01382528
                     0.003952154     0.008147991     -0.002312417     -0.01346214     -0.008230013      0.01403168        0.2131133      -0.7858967
6.2608                 0.2257583      -0.7814547     -0.007767535      0.01359535     -0.002361344     -0.01325201      0.004677311     0.008217173
                    -0.009480192      0.01353479        0.1992377      -0.7836133     -0.004122959      0.01212231     -0.002286372     -0.01321747
                    -0.001126318     -0.01301288     -0.004137485      0.01210451        0.1992118      -0.7836228     -0.008164247      0.01384217
                     0.004065525     0.008127065     -0.002522261     -0.01339691     -0.007836453      0.01402649        0.2100961      -0.7874652
6.2624                 0.2227643      -0.7831206     -0.007378307      0.01358463      -0.00256871     -0.01318471      0.004796891     0.008168887
                    -0.009090175      0.01360365        0.1962505      -0.7850364     -0.003744299      0.01206955     -0.002491454     -0.01316507
                    -0.001324686     -0.01300427     -0.003758957      0.01205181        0.1962236      -0.7850456     -0.007772045      0.01385171
                     0.004180177     0.008104251     -0.002731177     -0.01332731     -0.007444782      0.01401397        0.2070735      -0.7890109
6.264                  0.2197624      -0.7847638     -0.006991121      0.01356667     -0.002775058      -0.0131131       0.00491665     0.008118329
                    -0.008698688      0.01366543        0.1932598      -0.7864367     -0.003368043      0.01200904     -0.002696298     -0.01310845
                     -0.00152461     -0.01299186     -0.003382839      0.01199135        0.1932324      -0.7864452     -0.007380858      0.01385386
                     0.004296064     0.008079468     -0.002939009     -0.01325334     -0.007055214      0.01399413        0.2040458      -0.7905339
6.2656                 0.2167528      -0.7863843     -0.006606189       0.0135415     -0.002980237     -0.01303716      0.005036511     0.008065464
                    -0.008305922      0.01372003        0.1902665       -0.787814     -0.002994434      0.01194082     -0.002900748     -0.01304756
                    -0.001725968     -0.01297555     -0.003009365      0.01192317        0.1902379      -0.7878219     -0.006990882      0.01384863
                     0.004413127     0.008052638     -0.003145596     -0.01317501     -0.006667954      0.01396703        0.2010131      -0.7920343
6.2672                 0.2137359      -0.7879821     -0.006223717      0.01350918     -0.003184093     -0.01295691      0.005156395     0.008010262
                    -0.007912065      0.01376732        0.1872706      -0.7891685     -0.002623722      0.01186492      -0.00310466     -0.01298239
                     -0.00192863     -0.01295524     -0.002638783      0.01184733        0.1872412      -0.7891759     -0.006602342      0.01383602
                     0.004531305     0.008023686     -0.003350783     -0.01309233     -0.006283222       0.0139327        0.1979761       -0.793512
6.2688                  0.210712      -0.7895569     -0.005843905      0.01346975     -0.003386472     -0.01287236      0.005276226     0.007952695
                    -0.007517316      0.01380723         0.184272      -0.7905003     -0.002256141      0.01178142     -0.003307879     -0.01291292
                    -0.002132472     -0.01293082     -0.002271339      0.01176388        0.1842419       -0.790507      -0.00621545      0.01381602
                      0.00465053      0.00799254     -0.003554417      -0.0130053     -0.005901219       0.0138912        0.1949345      -0.7949671
6.2704                 0.2076815       -0.791109      -0.00546697      0.01342329      -0.00358722     -0.01278353      0.005395925     0.007892736
                    -0.007121876      0.01383966        0.1812719      -0.7918096     -0.001891944      0.01169038     -0.003510254     -0.01283911
                    -0.002337351      -0.0129022     -0.001907272      0.01167289        0.1812408      -0.7918156     -0.005830416      0.01378867
                     0.004770741     0.007959126     -0.003756335     -0.01291396     -0.005522156      0.01384262        0.1918892      -0.7963998
6.272                  0.2046447      -0.7926382     -0.005093107      0.01336987     -0.003786181     -0.01269045      0.005515412     0.007830366
                    -0.006725961      0.01386454        0.1782702      -0.7930964     -0.001531367      0.01159187     -0.003711629     -0.01276098
                    -0.002543132     -0.01286931      -0.00154683      0.01157443        0.1782383      -0.7931017     -0.005447458      0.01375399
                     0.004891862     0.007923384     -0.003956387     -0.01281833     -0.005146245        0.013787        0.1888402        -0.79781
6.2736                 0.2016014      -0.7941446     -0.004722518      0.01330956     -0.003983196     -0.01259315      0.005634604     0.007765566
                    -0.006329777      0.01388178         0.175267       -0.794361     -0.001174652        0.011486     -0.003911849     -0.01267852
                    -0.002749666     -0.01283205     -0.001190246      0.01146861        0.1752345      -0.7943655     -0.005066788        0.013712
                      0.00501382     0.007885244      -0.00415441     -0.01271845      -0.00477368      0.01372445        0.1857876       -0.799198
6.2752                 0.1985529      -0.7956281     -0.004355409      0.01324245     -0.004178121     -0.01249167      0.005753418     0.007698324
                    -0.005933547      0.01389133         0.172263      -0.7956035    -0.0008220334      0.01137285     -0.004110761     -0.01259174
                    -0.002956806     -0.01279036    -0.0008377577      0.01135551        0.1722298      -0.7956072      -0.00468863      0.01366277
                     0.005136541     0.007844646     -0.004350247     -0.01261437     -0.004404682      0.01365505        0.1827322      -0.8005636
6.2768                 0.1954983      -0.7970887     -0.003991971      0.01316866       -0.0043708     -0.01238606       0.00587177     0.007628626
                    -0.005537488      0.01389314        0.1692585      -0.7968239     -0.000473747      0.01125254     -0.004308199     -0.01250064
                    -0.003164402     -0.01274417    -0.0004896055      0.01123525        0.1692245       -0.796827     -0.004313191      0.01360634
                     0.005259946     0.007801531     -0.004543753     -0.01250615     -0.004039438       0.0135789        0.1796739      -0.8019072
6.2784                 0.1924391      -0.7985263     -0.003632407      0.01308827     -0.004561077     -0.01227638      0.005989578     0.007556467
                    -0.005141823      0.01388715        0.1662537      -0.7980227    -0.0001300274      0.01112518     -0.004504015     -0.01240525
                    -0.003372292     -0.01269342    -0.0001460168      0.01110794         0.166219      -0.7980248     -0.003940692      0.01354277
                      0.00538395     0.007755847     -0.004734768     -0.01239382     -0.003678154      0.01349612         0.176613      -0.8032288
6.28                   0.1893747      -0.7999413     -0.003276899       0.0130014     -0.004748804     -0.01216268      0.006106755     0.007481844
                    -0.004746786      0.01387333         0.163249      -0.7991999      0.000208901      0.01099091     -0.004698047      -0.0123056
                    -0.003580321     -0.01263805     0.0001927803      0.01097372        0.1632135      -0.7992011     -0.003571343      0.01347213
                     0.005508473     0.007707537     -0.004923139     -0.01227747     -0.003321024      0.01340681        0.1735501      -0.8045285
6.2816                  0.186306      -0.8013332     -0.002925644      0.01290819      -0.00493384     -0.01204504      0.006223219     0.007404756
                    -0.004352607      0.01385165        0.1602445      -0.8003559     0.0005428118      0.01084986     -0.004890142     -0.01220172
                    -0.003788328     -0.01257801     0.0005265634      0.01083272        0.1602083       -0.800356     -0.003205352      0.01339451
                     0.005633428     0.007656557     -0.005108723     -0.01215717     -0.002968233      0.01331112         0.170485      -0.8058063
6.2832                  0.183233      -0.8027026     -0.002578823      0.01280876     -0.005116035     -0.01192352      0.006338884     0.007325209
                    -0.003959512      0.01382209        0.1572407      -0.8014905     0.0008714846      0.01070219     -0.005080142     -0.01209364
                     -0.00399615     -0.01251326     0.0008551062       0.0106851        0.1572039      -0.8014898     -0.002842939      0.01330998
                     0.005758726     0.007602858      -0.00529137     -0.01203299     -0.002619972      0.01320916        0.1674185      -0.8070626
6.2848                 0.1801562      -0.8040492     -0.002236614      0.01270324     -0.005295244     -0.01179822      0.006453663     0.007243208
                    -0.003567747      0.01378463        0.1542378      -0.8026044      0.001194709      0.01054806     -0.005267894     -0.01198143
                    -0.004203612     -0.01244376        0.0011782      0.01053101        0.1542005      -0.8026026     -0.002484303      0.01321866
                     0.005884275     0.007546403     -0.005470938     -0.01190502     -0.002276427      0.01310109        0.1643505      -0.8082975
6.2864                 0.1770757      -0.8053731     -0.001899193      0.01259179     -0.005471328     -0.01166921      0.006567476     0.007158765
                    -0.003177548      0.01373928        0.1512362      -0.8036976      0.001512273      0.01038762     -0.005453242     -0.01186513
                    -0.004410556      -0.0123695      0.001495634      0.01037062        0.1511983      -0.8036947     -0.002129651      0.01312064
                     0.006009986     0.007487152     -0.005647283     -0.01177335     -0.001937776      0.01298705        0.1612816      -0.8095109
6.288                   0.173992      -0.8066743     -0.001566733      0.01247456     -0.005644149      -0.0115366      0.006680234     0.007071896
                    -0.002789149      0.01368605        0.1482358      -0.8047702      0.001823969      0.01022106     -0.005636036      -0.0117448
                    -0.004616799     -0.01229043      0.001807204      0.01020411        0.1481975      -0.8047663     -0.001779189      0.01301604
                     0.006135761      0.00742507     -0.005820267     -0.01163808     -0.001604187       0.0128672        0.1582117      -0.8107032
6.2896                 0.1709054      -0.8079531     -0.001239396       0.0123517      -0.00581358     -0.01140048      0.006791855      0.00698262
                    -0.002402796      0.01362495        0.1452374      -0.8058226      0.002129607      0.01004857     -0.005816123     -0.01162051
                    -0.004822174     -0.01220657      0.002112712      0.01003165        0.1451983      -0.8058177     -0.001433107      0.01290498
                     0.006261509     0.007360127     -0.005989761     -0.01149931     -0.001275829       0.0127417        0.1551414      -0.8118746
6.2912                 0.1678162      -0.8092093    -0.0009173431      0.01222339      -0.00597948     -0.01126096      0.006902255     0.006890956
                     -0.00201873      0.01355601        0.1422408      -0.8068551      0.002428993     0.009870327     -0.005993363     -0.01149233
                    -0.005026507     -0.01211789      0.002411966     0.009853463        0.1422016      -0.8068491     -0.001091604       0.0127876
                      0.00638713     0.007292299     -0.006155628     -0.01135717    -0.0009528672      0.01261074        0.1520707      -0.8130251
6.2928                 0.1647248      -0.8104432    -0.0006007277      0.01208981     -0.006141733     -0.01111815      0.007011354     0.006796933
                    -0.001637191      0.01347927        0.1392467       -0.807868      0.002721942     0.009686553     -0.006167608     -0.01136035
                    -0.005229624     -0.01202439      0.002704785      0.00966973        0.1392069      -0.8078607      -0.00075487      0.01266402
                     0.006512526      0.00722156     -0.006317748     -0.01121175    -0.0006354524      0.01247448        0.1489998       -0.814155
6.2944                 0.1616312       -0.811655    -0.0002896974      0.01195113     -0.006300213     -0.01097218       0.00711907     0.006700579
                    -0.001258419      0.01339477         0.136255      -0.8088614      0.003008277      0.00949745     -0.006338708     -0.01122466
                    -0.005431342     -0.01192609      0.002990988      0.00948067        0.1362146       -0.808853    -0.0004230906      0.01253441
                     0.006637599     0.007147894     -0.006475996      -0.0110632    -0.0003237357      0.01233311        0.1459293      -0.8152645
6.296                  0.1585361      -0.8128446      1.56117e-05      0.01180753     -0.006454806     -0.01082315       0.00722532     0.006601926
                   -0.0008826566      0.01330257         0.133266      -0.8098357      0.003287826     0.009303237     -0.006506534     -0.01108534
                    -0.005631496       -0.011823       0.00327041     0.009286501        0.1332255       -0.809826    -9.644442e-05      0.01239892
                     0.006762249     0.007071286      -0.00663026     -0.01091163    -1.786024e-05      0.01218682         0.142859      -0.8163536
6.2976                 0.1554394      -0.8140122     0.0003150604      0.01165923     -0.006605395     -0.01067122      0.007330026      0.00650101
                   -0.0005101433      0.01320274        0.1302799      -0.8107911      0.003560435     0.009104146     -0.006670948     -0.01094251
                    -0.005829905     -0.01171514      0.003542888     0.009087448        0.1302391      -0.8107802     0.0002248903       0.0122577
                     0.006886372     0.006991724     -0.006780419     -0.01075718     0.0002820383      0.01203582        0.1397895      -0.8174227
6.2992                 0.1523419      -0.8151578     0.0006085244      0.01150641     -0.006751875      -0.0105165      0.007433114     0.006397874
                   -0.0001411182      0.01309534        0.1272973       -0.811728      0.003825945     0.008900405     -0.006831818     -0.01079625
                    -0.006026393     -0.01160254      0.003808267     0.008883746        0.1272559      -0.8117159     0.0005407478      0.01211093
                     0.007009871     0.006909204     -0.006926376         -0.0106     0.0005758297      0.01188031        0.1367209       -0.818472
6.3008                 0.1492436      -0.8162817     0.0008958829      0.01134928     -0.006894147     -0.01035914      0.007534506     0.006292555
                    0.0002241829      0.01298048        0.1243176      -0.8126466      0.004084217     0.008692255     -0.006989012      -0.0106467
                    -0.006220781     -0.01148525      0.004066406     0.008675638         0.124276      -0.8126332     0.0008509635      0.01195879
                      0.00713264     0.006823721     -0.007068027     -0.01044022      0.000863398       0.0117205        0.1336533      -0.8195018
6.3024                 0.1461446      -0.8173841      0.001177025      0.01118806     -0.007032108     -0.01019928      0.007634127     0.006185104
                    0.0005855215      0.01285823        0.1213417      -0.8135473       0.00433511     0.008479947      -0.00714241     -0.01049396
                    -0.006412902     -0.01136329      0.004317166     0.008463367        0.1212998      -0.8135327      0.001155375      0.01180147
                     0.007254579     0.006735279     -0.007205273     -0.01027799       0.00114463       0.0115566         0.130587      -0.8205121
6.304                  0.1430454       -0.818465      0.001451853      0.01102295      -0.00716567     -0.01003708      0.007731904     0.006075568
                     0.000942669      0.01272871        0.1183693      -0.8144302      0.004578501     0.008263732     -0.007291888     -0.01033816
                    -0.006602579     -0.01123674      0.004560426     0.008247187        0.1183275      -0.8144142      0.001453836      0.01163914
                     0.007375584     0.006643882     -0.007338025     -0.01011347      0.001419418      0.01138884        0.1275224      -0.8215032
6.3056                 0.1399465      -0.8195245      0.001720264      0.01085419     -0.007294753    -0.009872685      0.007827768        0.005964
                     0.001295398      0.01259202        0.1154007       -0.815296      0.004814278     0.008043871     -0.007437337     -0.01017943
                    -0.006789637     -0.01110564      0.004796067     0.008027362        0.1153588      -0.8152787      0.001746204      0.01147202
                     0.007495556     0.006549541     -0.007466203    -0.009946819      0.001687669      0.01121743        0.1244593      -0.8224754
6.3072                 0.1368479      -0.8205631      0.001982172      0.01068199     -0.007419267    -0.009706259      0.007921651     0.005850456
                     0.001643474       0.0124483        0.1124365      -0.8161446      0.005042327     0.007820627     -0.007578647     -0.01001791
                    -0.006973915     -0.01097007      0.005023982     0.007804151        0.1123944       -0.816126       0.00203234      0.01130031
                     0.007614388     0.006452269      -0.00758973    -0.009778202      0.001949296      0.01104263         0.121398      -0.8234289
6.3088                 0.1337499      -0.8215808      0.002237503      0.01050658     -0.007539151    -0.009537958      0.008013488     0.005734993
                     0.001986682      0.01229768        0.1094762      -0.8169765      0.005262556      0.00759427     -0.007715707    -0.009853729
                    -0.007155234     -0.01083009      0.005244074     0.007577828        0.1094341      -0.8169566      0.002312116      0.01112422
                     0.007731981     0.006352086     -0.007708533    -0.009607778      0.002204216      0.01086464        0.1183389       -0.824364
6.3104                 0.1306529      -0.8225777      0.002486187      0.01032819     -0.007654333    -0.009367948      0.008103216     0.005617671
                       0.0023248      0.01214029        0.1065203      -0.8177922      0.005474878     0.007365075     -0.007848428    -0.009687038
                    -0.007333435      -0.0106858      0.005456261     0.007348666         0.106478      -0.8177709      0.002585411      0.01094396
                     0.007848234     0.006249011     -0.007822551    -0.009435726      0.002452365      0.01068372         0.115282      -0.8252808
6.312                  0.1275572      -0.8235539       0.00272816      0.01014707     -0.007764751    -0.009196403      0.008190771     0.005498556
                     0.002657617      0.01197628        0.1035687      -0.8185918      0.005679219     0.007133322     -0.007976705    -0.009517986
                    -0.007508358     -0.01053727      0.005660462     0.007116944        0.1035265      -0.8185691       0.00285211      0.01075975
                     0.007963048     0.006143075      -0.00793172    -0.009262214      0.002693678       0.0105001        0.1122274      -0.8261796
6.3136                 0.1244627        -0.82451      0.002963375     0.009963452     -0.007870361     -0.00902349      0.008276097     0.005377714
                     0.002984923      0.01180583        0.1006216      -0.8193756      0.005875513     0.006899292     -0.008100463    -0.009346724
                    -0.007679834     -0.01038461      0.005856617     0.006882944        0.1005797      -0.8193517      0.003112107      0.01057183
                     0.008076319     0.006034303     -0.008036005    -0.009087417      0.002928109      0.01031403        0.1091757      -0.8270609
6.3152                 0.1213699       -0.825446      0.003191786     0.009777573     -0.007971111    -0.008849386      0.008359136     0.005255213
                     0.003306512      0.01162909       0.09767892      -0.8201442      0.006063709     0.006663271     -0.008219611    -0.009173418
                    -0.007847714     -0.01022791       0.00604467     0.006646951       0.09763717      -0.8201188      0.003365309      0.01038043
                     0.008187954     0.005922733      -0.00813535    -0.008911519       0.00315561      0.01012576        0.1061263      -0.8279247
6.3168                  0.118279       -0.826362      0.003413364     0.009589676     -0.008066968     -0.00867427      0.008439841     0.005131124
                     0.003622188      0.01144624       0.09474107      -0.8208976       0.00624376     0.006425548     -0.008334076    -0.008998225
                    -0.008011845     -0.01006729       0.00622458     0.006409256       0.09469964      -0.8208708      0.003611627      0.01018578
                     0.008297851     0.005808403     -0.008229724    -0.008734701      0.003376156     0.009935532        0.1030799      -0.8287712
6.3184                 0.1151906      -0.8272584      0.003628085     0.009400011     -0.008157895     -0.00849832      0.008518157     0.005005521
                     0.003931756      0.01125747       0.09180792      -0.8216363       0.00641564     0.006186414     -0.008443794    -0.008821311
                    -0.008172071    -0.009902855      0.006396315     0.006170149       0.09176683      -0.8216081       0.00385098     0.009988116
                     0.008405919     0.005691354       -0.0083191    -0.008557147      0.003589719     0.009743595        0.1000363      -0.8296009
6.32                   0.1121044      -0.8281354      0.003835935     0.009208821     -0.008243875    -0.008321716       0.00859404      0.00487848
                     0.004235035      0.01106297       0.08887982      -0.8223606      0.006579325     0.005946164     -0.008548701    -0.008642848
                     -0.00832826    -0.009734735      0.006559855     0.005929924       0.08883888      -0.8223311      0.004083304     0.009787691
                     0.008512062     0.005571631     -0.008403465    -0.008379039      0.003796291     0.009550205       0.09699592      -0.8304139
6.3216                 0.1090208      -0.8289933      0.004036912     0.009016355     -0.008324886    -0.008144641      0.008667445     0.004750077
                     0.004531843      0.01086294       0.08595607       -0.823071      0.006734811      0.00570509     -0.008648738    -0.008463004
                    -0.008480256    -0.009563061      0.006715191     0.005688875       0.08591569      -0.8230401      0.004308532     0.009584749
                     0.008616183     0.005449285     -0.008482795     -0.00820057      0.003995868     0.009355614       0.09395852      -0.8312106
6.3232                 0.1059401      -0.8298321      0.004231023     0.008822861     -0.008400926    -0.007967283      0.008738334     0.004620391
                     0.004822003      0.01065759       0.08303761      -0.8237676      0.006882099     0.005463489     -0.008743864    -0.008281959
                    -0.008627935    -0.009387963       0.00686233     0.005447297        0.0829974      -0.8237354      0.004526617     0.009379542
                     0.008718198      0.00532437     -0.008557094    -0.008021924      0.004188459     0.009160075       0.09092447       -0.831991
6.3248                 0.1028623      -0.8306524      0.004418281     0.008628586     -0.008471989    -0.007789824       0.00880667     0.004489505
                     0.005105359      0.01044714       0.08012373      -0.8244508      0.007021205     0.005221659     -0.008834029     -0.00809989
                    -0.008771163    -0.009209582      0.007001283     0.005205489       0.08008429      -0.8244172      0.004737522     0.009172319
                     0.008818014     0.005196942     -0.008626363    -0.007843294       0.00437408     0.008963842        0.0878937      -0.8327557
6.3264                0.09978774      -0.8314541      0.004598716     0.008433778     -0.008538088    -0.007612453      0.008872418     0.004357499
                     0.005381746       0.0102318       0.07721476       -0.825121      0.007152156     0.004979893     -0.008919208    -0.007916979
                    -0.008909809    -0.009028067       0.00713208     0.004963746        0.0771759      -0.8250861      0.004941206     0.008963338
                     0.008915546     0.005067062     -0.008690614    -0.007664867      0.004552762     0.008767166       0.08486634      -0.8335049
6.328                 0.09671672      -0.8322377      0.004772363     0.008238685     -0.008599234    -0.007435353      0.008935549     0.004224458
                     0.005651023      0.01001182       0.07431056      -0.8257784      0.007274991     0.004738491     -0.008999371    -0.007733405
                    -0.009043758    -0.008843572      0.007254758     0.004722363        0.0742723      -0.8257421      0.005137656     0.008752855
                     0.009010711     0.004934794     -0.008749867    -0.007486831      0.004724545     0.008570304       0.08184253      -0.8342387
6.3296                0.09364919      -0.8330036      0.004939266     0.008043553      -0.00865545     -0.00725871      0.008996037     0.004090467
                     0.005913041     0.009787424       0.07141147      -0.8264235      0.007389762     0.004497744     -0.009074497    -0.007549357
                    -0.009172899    -0.008656248      0.007369371     0.004481636       0.07137362      -0.8263859      0.005326858      0.00854113
                     0.009103425     0.004800206     -0.008804147    -0.007309381      0.004889471     0.008373504       0.07882217      -0.8349575
6.3312                0.09058549      -0.8337519      0.005099488     0.007848623     -0.008706768    -0.007082714      0.009053861     0.003955612
                     0.006167669     0.009558858       0.06851695      -0.8270566      0.007496531     0.004257949     -0.009144582    -0.007365015
                    -0.009297119    -0.008466266      0.007475978      0.00424186       0.06847993      -0.8270176      0.005508811     0.008328422
                     0.009193609     0.004663368     -0.008853497    -0.007132703      0.005047603     0.008177015       0.07580557      -0.8356616
6.3328                 0.0875256      -0.8344827      0.005253085     0.007654142     -0.008753222     -0.00690755      0.009108999      0.00381998
                     0.006414786     0.009326369       0.06562712      -0.8276778      0.007595372     0.004019395     -0.009209616    -0.007180572
                    -0.009416314    -0.008273788      0.007574654     0.004003325       0.06559072      -0.8276376      0.005683524     0.008114988
                     0.009281188     0.004524354     -0.008897955    -0.006956985      0.005199012     0.007981086       0.07279225      -0.8363513
6.3344                0.08447003      -0.8351967      0.005400141     0.007460347      -0.00879487    -0.006733394      0.009161437     0.003683659
                     0.006654278     0.009090212       0.06274205      -0.8282876      0.007686372     0.003782374     -0.009269608    -0.006996211
                    -0.009530391    -0.008078993      0.007665487     0.003766321       0.06270627      -0.8282462      0.005851017     0.007901092
                     0.009366089     0.004383241     -0.008937574    -0.006782412      0.005343771     0.007785962       0.06978272      -0.8370266
6.336                 0.08141852      -0.8358937      0.005540737     0.007267477     -0.008831758    -0.006560439      0.009211162     0.003546736
                     0.006886037     0.008850647        0.0598614      -0.8288863       0.00776963     0.003547172      -0.00932456    -0.006812126
                    -0.009639266    -0.007882048      0.007748574     0.003531135       0.05982668      -0.8288437      0.006011321     0.007686992
                     0.009448237     0.004240109     -0.008972415    -0.006609178      0.005481973     0.007591886       0.06677688      -0.8376881
6.3376                0.07837123      -0.8365744      0.005674973     0.007075763     -0.008863951    -0.006388857      0.009258169     0.003409302
                     0.007109971     0.008607939       0.05698546      -0.8294743      0.007845254      0.00331407      -0.00937451    -0.006628495
                    -0.009742846    -0.007683146      0.007824025      0.00329805       0.05695159      -0.8294303      0.006164473     0.007472946
                     0.009527569     0.004095041     -0.009002547    -0.006437458      0.005613715     0.007399095       0.06377463      -0.8383359
6.3392                0.07532869       -0.837239      0.005802948     0.006885439     -0.008891515    -0.006218837      0.009302454     0.003271444
                     0.007325991     0.008362356        0.0541137      -0.8300516      0.007913364     0.003083349     -0.009419472    -0.006445515
                    -0.009841064    -0.007482466       0.00789196     0.003067345        0.0540809      -0.8300065      0.006310527     0.007259215
                     0.009604019     0.003948121     -0.009028046    -0.006267437       0.00573911     0.007207827       0.06077586      -0.8389704
6.3408                0.07229038      -0.8378876      0.005924782     0.006696729     -0.008914534    -0.006050544      0.009344014     0.003133252
                     0.007534023     0.008114169        0.0512464      -0.8306188      0.007974097     0.002855285     -0.009459484    -0.006263371
                    -0.009933854    -0.007280196      0.007952511     0.002839296       0.05121446      -0.8305725      0.006449542     0.007046053
                     0.009677527     0.003799438     -0.009048995    -0.006099289       0.00585827     0.007018311       0.05778106      -0.8395916
6.3424                0.06925689      -0.8385207      0.006040595     0.006509855     -0.008933092    -0.005884161      0.009382855     0.002994814
                     0.007734001     0.007863658       0.04838339       -0.831176      0.008027592     0.002630146     -0.009494595     -0.00608225
                     -0.01002115    -0.007076533      0.008005825     0.002614172       0.04835234      -0.8311286      0.006581589     0.006833714
                     0.009748035     0.003649083     -0.009065485    -0.005933197      0.005971326     0.006830775       0.05478973      -0.8402001
6.344                 0.06622809      -0.8391387       0.00615052     0.006325034     -0.008947278    -0.005719852      0.009418984     0.002856219
                     0.007925871     0.007611102       0.04552416      -0.8317235      0.008074007     0.002408197     -0.009524854    -0.005902335
                     -0.01010289    -0.006871672      0.008052053     0.002392238        0.0454942      -0.8316749       0.00670675     0.006622453
                     0.009815488     0.003497147     -0.009077619    -0.005769327      0.006078416     0.006645438       0.05180175      -0.8407959
6.3456                0.06320393      -0.8397416      0.006254703     0.006142478     -0.008957203    -0.005557789      0.009452411     0.002717557
                     0.008109586     0.007356782       0.04266894      -0.8322616      0.008113507     0.002189698     -0.009550316    -0.005723812
                     -0.01017905    -0.006665807      0.008091362     0.002173753       0.04264008       -0.832212      0.006825116     0.006412517
                     0.009879837     0.003343726     -0.009085502    -0.005607853      0.006179684      0.00646252       0.04881738      -0.8413793
6.3472                0.06018488      -0.8403298      0.006353289     0.005962392     -0.008962965    -0.005398131      0.009483152     0.002578914
                     0.008285117     0.007100986       0.03981739      -0.8327906      0.008146268     0.001974901     -0.009571058    -0.005546863
                     -0.01024958    -0.006459146      0.008123931     0.001958971       0.03978983      -0.8327399      0.006936789     0.006204151
                     0.009941032     0.003188917     -0.009089248    -0.005448937      0.006275288     0.006282228       0.04583653      -0.8419507
6.3488                0.05717067      -0.8409038      0.006446441     0.005784979      -0.00896468    -0.005241045      0.009511228     0.002440377
                     0.008452439     0.006843999       0.03696955      -0.8333106      0.008172479     0.001764053     -0.009587149    -0.005371663
                     -0.01031446    -0.006251885      0.008149941     0.001748137       0.03694312       -0.833259      0.007041882       0.0059976
                     0.009999034     0.003032817     -0.009088982    -0.005292736       0.00636539     0.006104767       0.04285905      -0.8425102
6.3504                0.05416162      -0.8414638      0.006534326     0.005610427     -0.008962474    -0.005086677      0.009536658     0.002302032
                     0.008611539     0.006586112       0.03412487      -0.8338221      0.008192334     0.001557391     -0.009598673    -0.005198399
                     -0.01037365    -0.006044235      0.008169596      0.00154149       0.03409976      -0.8337695      0.007140515     0.005793101
                      0.01005381     0.002875528     -0.009084831    -0.005139413      0.006450164     0.005930337        0.0398848      -0.8430579
6.352                 0.05115738        -0.84201       0.00661712     0.005438928     -0.008956477    -0.004935183       0.00955947     0.002163964
                     0.008762416     0.006327615       0.03128359      -0.8343251      0.008206043     0.001355148     -0.009605726    -0.005027234
                     -0.01042715    -0.005836397      0.008183099     0.001339262        0.0312596      -0.8342717      0.007232819     0.005590887
                       0.0101053      0.00271715     -0.009076932    -0.004989111       0.00652979     0.005759127       0.03691407      -0.8435944
6.3536                0.04815809      -0.8425428      0.006695004     0.005270658     -0.008946824    -0.004786704      0.009579696     0.002026257
                     0.008905086     0.006068797       0.02844532      -0.8348199      0.008213821     0.001157546     -0.009608398    -0.004858346
                     -0.01047496    -0.005628583      0.008190667     0.001141676       0.02842269      -0.8347657      0.007318936     0.005391188
                      0.01015351     0.002557788     -0.009065429    -0.004841981      0.006604458     0.005591318        0.0339461      -0.8441197
6.3552                0.04516382      -0.8430623      0.006768173     0.005105791     -0.008933658    -0.004641383      0.009597367     0.001888993
                     0.009039566     0.005809951       0.02560973      -0.8353069      0.008215895    0.0009648004     -0.009606801    -0.004691902
                     -0.01051707    -0.005421001      0.008192527     0.000948946       0.02558844      -0.8352517      0.007399016     0.005194227
                      0.01019838     0.002397546     -0.009050473    -0.004698158      0.006674367     0.005427091       0.03098135       -0.844634
6.3568                0.04217485      -0.8435693      0.006836823      0.00494449     -0.008917123    -0.004499354      0.009612518     0.001752252
                     0.009165889     0.005551368       0.02277682      -0.8357859        0.0082125     0.000777117     -0.009601045    -0.004528061
                      -0.0105535    -0.005213861      0.008188914    0.0007612793       0.02275689      -0.8357302      0.007473219     0.005000219
                      0.01023991     0.002236528     -0.009032215    -0.004557782      0.006739716      0.00526661       0.02801969      -0.8451377
6.3584                0.03919046      -0.8440636       0.00690116     0.004786913     -0.008897384    -0.004360744      0.009625196     0.001616113
                     0.009284101     0.005293341       0.01994622      -0.8362576       0.00820388    0.0005946925     -0.009591255    -0.004366987
                     -0.01058427    -0.005007368      0.008180072    0.0005788722       0.01992785      -0.8362009      0.007541713      0.00480938
                      0.01027807     0.002074841     -0.009010823    -0.004420974      0.006800722     0.005110034       0.02506077      -0.8456307
6.36                  0.03621134      -0.8445458      0.006961395     0.004633205     -0.008874594    -0.004225675      0.009635441     0.001480653
                     0.009394258     0.005036156       0.01711797      -0.8367218      0.008190288    0.0004177136     -0.009577555    -0.004208829
                     -0.01060941    -0.004801738      0.008166252    0.0004019119       0.01710077      -0.8366645      0.007604675     0.004621911
                      0.01031285     0.001912593     -0.008986462     -0.00428786      0.006857599     0.004957515       0.02210442      -0.8461136
6.3616                0.03323695      -0.8450159      0.007017749     0.004483505     -0.008848921    -0.004094267        0.0096433     0.001345946
                     0.009496428     0.004780104       0.01429147      -0.8371787      0.008171982    0.0002463575     -0.009560079    -0.004053746
                     -0.01062896    -0.004597172      0.008147714    0.0002305754       0.01427584      -0.8371208      0.007662293     0.004438012
                      0.01034423      0.00174989     -0.008959307    -0.004158553      0.006910574     0.004809196        0.0191507      -0.8465862
6.3632                0.03026777      -0.8454745      0.007070445     0.004337945     -0.008820543    -0.003966621      0.009648827     0.001212066
                     0.009590688      0.00452547       0.01146675      -0.8376285      0.008149233    8.079075e-05     -0.009538971    -0.003901876
                     -0.01064296    -0.004393884      0.008124727    6.502959e-05        0.0114527      -0.8375702      0.007714758     0.004257873
                      0.01037222      0.00158684     -0.008929541    -0.004033157      0.006959878     0.004665205       0.01619945      -0.8470489
6.3648                0.02730305      -0.8459218      0.007119712     0.004196643     -0.008789632    -0.003842843      0.009652072     0.001079081
                     0.009677129     0.004272537      0.008643831      -0.8380716      0.008122312   -7.883072e-05     -0.009514377    -0.003753359
                     -0.01065147    -0.004192078      0.008097566   -9.456954e-05      0.008630767      -0.8380126      0.007762276     0.004081676
                      0.01039681     0.001423551     -0.008897346    -0.003911777      0.007005747     0.004525671       0.01325033      -0.8475019
6.3664                0.02434348      -0.8463579      0.007165787     0.004059712     -0.008756371    -0.003723028      0.009653095    0.0009470611
                     0.009755854     0.004021589      0.005821499      -0.8385078      0.008091505    -0.000232362     -0.009486452     -0.00360833
                     -0.01065455    -0.003991963      0.008066511   -0.0002480769      0.005810225      -0.8384483      0.007805055     0.003909598
                        0.010418     0.001260132     -0.008862912    -0.003794502      0.007048424     0.004390703       0.01030354      -0.8479452
6.368                 0.02138808      -0.8467833      0.007208911      0.00392725     -0.008720947    -0.003607263      0.009651954    0.0008160693
                     0.009826972     0.003772901      0.002999979      -0.8389373      0.008057095   -0.0003796697     -0.009455356    -0.003466914
                     -0.01065227    -0.003793742      0.008031852   -0.0003953588      0.002990499      -0.8388774      0.007843314     0.003741805
                       0.0104358     0.001096689     -0.008826435    -0.003681416      0.007088155     0.004260404      0.007358723      -0.8483792
6.3696                0.01843771      -0.8471983      0.007249325      0.00379935     -0.008683553    -0.003495627      0.009648714    0.0006861681
                      0.00989061     0.003526747     0.0001796799      -0.8393602      0.008019381   -0.0005206317     -0.009421256    -0.003329233
                     -0.01064472    -0.003597609      0.007993881   -0.0005362931     0.0001719966      -0.8393001      0.007877275     0.003578453
                      0.01045023    0.0009333303     -0.008788111    -0.003572602      0.007125191     0.004134868      0.004415925      -0.8488039
6.3712                0.01549203      -0.8476029      0.007287281     0.003676091     -0.008644384     -0.00338819      0.009643437    0.0005574166
                     0.009946902     0.003283399     -0.002640592      -0.8397769       0.00797866   -0.0006551382     -0.009384322    -0.003195407
                     -0.01063198    -0.003403772      0.007952898   -0.0006707698     -0.002646874      -0.8397163      0.007907172     0.003419693
                      0.01046129    0.0007701623     -0.008748144    -0.003468117      0.007159792     0.004014177      0.001474365      -0.8492195
6.3728                0.01254988      -0.8479976      0.007323029     0.003557544     -0.008603635    -0.003285018      0.009636194    0.0004298709
                     0.009995991      0.00304312     -0.005460429       -0.840187      0.007935237   -0.0007830912     -0.009344735    -0.003065532
                     -0.01061415     -0.00321242      0.007909207   -0.0007986906     -0.005464909      -0.8401262      0.007933239     0.003265663
                      0.01046901    0.0006072908      -0.00870674     -0.00336803      0.007192212     0.003898401     -0.001465522      -0.8496261
6.3744               0.009612497      -0.8483825      0.007356825     0.003443768     -0.008561514    -0.003186165      0.009627054    0.0003035838
                      0.01003804     0.002806172     -0.008281031      -0.8405908       0.00788942   -0.0009044054     -0.009302675    -0.002939721
                     -0.01059134     -0.00302375      0.007863117   -0.0009199699     -0.008284106        -0.84053      0.007955728     0.003116494
                      0.01047341    0.0004448212     -0.008664111    -0.003272389      0.007222716     0.003787601     -0.004404518      -0.8500238
6.376                 0.00667872      -0.8487581      0.007388928      0.00333481     -0.008518223    -0.003091675      0.009616092    0.0001786045
                       0.0100732     0.002572807      -0.01110119      -0.8409884       0.00784152    -0.001019008     -0.009258331    -0.002818058
                     -0.01056366    -0.002837946      0.007814941    -0.001034535      -0.01110286      -0.8409274       0.00797488     0.002972306
                      0.01047452    0.0002828573     -0.008620465    -0.003181236      0.007251572     0.003681827     -0.007341787      -0.8504128
6.3776               0.003749799      -0.8491244      0.007419598     0.003230709      -0.00847397    -0.003001588      0.009603381    5.497934e-05
                      0.01010167     0.002343275      -0.01392251      -0.8413796      0.007791855    -0.001126838     -0.009211892    -0.002700631
                     -0.01053122    -0.002655199      0.007764994    -0.001142325      -0.01392237      -0.8413187      0.007990955     0.002833207
                      0.01047238    0.0001215019     -0.008576022    -0.003094606      0.007279046     0.003581116      -0.01027893      -0.8507932
6.3792              0.0008241456      -0.8494817        0.0074491      0.00313149     -0.008428966    -0.002915936      0.009588998   -6.724946e-05
                      0.01012362     0.002117818      -0.01674459      -0.8417649      0.007740744     -0.00122785     -0.009163558    -0.002587521
                     -0.01049417    -0.002475686      0.007713595    -0.001243293      -0.01674264      -0.8417038      0.008004212     0.002699299
                      0.01046701   -3.914386e-05     -0.008530995    -0.003012522      0.007305408     0.003485495      -0.01321469      -0.8511649
6.3808              -0.002097805      -0.8498303      0.007477693     0.003037168     -0.008383425    -0.002834732      0.009573024   -0.0001880431
                      0.01013925      0.00189667      -0.01956822      -0.8421438      0.007688508    -0.001322009     -0.009113528    -0.002478795
                     -0.01045264     -0.00229958      0.007661066    -0.001337406      -0.01956446       -0.842083      0.008014915      0.00257067
                      0.01045846   -0.0001989804     -0.008485609    -0.002934999       0.00733093     0.003394979      -0.01615029      -0.8515283
6.3824               -0.00501643      -0.8501703      0.007505645     0.002947748     -0.008337556    -0.002757994      0.009555538   -0.0003073665
                      0.01014878     0.001680059      -0.02239301      -0.8425165      0.007635471    -0.001409294     -0.009062003    -0.002374514
                     -0.01040677    -0.002127053       0.00760773    -0.001424641      -0.02238785      -0.8424559      0.008023332     0.002447397
                      0.01044678   -0.0003579099     -0.008440077    -0.002862043      0.007355885     0.003309571      -0.01908528      -0.8518832
6.384                 -0.0079313       -0.850502      0.007533221      0.00286322     -0.008291579    -0.002685718      0.009536622   -0.0004251885
                      0.01015241     0.001468206      -0.02521976      -0.8428832      0.007581956    -0.001489699     -0.009009195    -0.002274729
                     -0.01035671    -0.001958273      0.007553912    -0.001504991      -0.02521279      -0.8428227      0.008029737     0.002329547
                      0.01043201   -0.0005158366     -0.008394627    -0.002793652      0.007380545     0.003229264      -0.02202006        -0.85223
6.3856               -0.01084321      -0.8508256      0.007560683     0.002783566     -0.008245708    -0.002617904       0.00951636   -0.0005414818
                      0.01015037     0.001261323      -0.02804847      -0.8432436      0.007528289    -0.001563229     -0.008955313    -0.002179489
                     -0.01030263    -0.001793399      0.007499936    -0.001578463      -0.02804049      -0.8431833      0.008034403     0.002217176
                      0.01041421   -0.0006726667     -0.008349481    -0.002729809      0.007405185     0.003154036      -0.02495541      -0.8525683
6.3872               -0.01375213      -0.8511413        0.0075883     0.002708755      -0.00820016    -0.002554526      0.009494838   -0.0006562234
                       0.0101429     0.001059612      -0.03087993      -0.8435977      0.007474796    -0.001629904      -0.00890057    -0.002088826
                      -0.0102447    -0.001632583      0.007446129    -0.001645077      -0.03086975      -0.8435377      0.008037609     0.002110328
                      0.01039343   -0.0008283089     -0.008304858    -0.002670491      0.007430075     0.003083857      -0.02789092      -0.8528985
6.3888               -0.01665845      -0.8514493      0.007616333     0.002638743      -0.00815515    -0.002495565       0.00947214   -0.0007693939
                      0.01013024    0.0008632691      -0.03371335      -0.8439455      0.007421802    -0.001689758      -0.00884518    -0.002002768
                     -0.01018308    -0.001475974      0.007392815    -0.001704864      -0.03370218       -0.843886      0.008039637     0.002009035
                      0.01036973   -0.0009826744     -0.008260984     -0.00261567      0.007455487     0.003018682      -0.03082656      -0.8532205
6.3904               -0.01956257      -0.8517497      0.007645045     0.002573478     -0.008110896    -0.002440985      0.009448355   -0.0008809784
                      0.01011265    0.0006724793      -0.03654993      -0.8442869      0.007369631    -0.001742838     -0.008789361    -0.001921335
                     -0.01011796     -0.00132371      0.007340319    -0.001757872      -0.03653696      -0.8442278      0.008040768     0.001913319
                      0.01034317    -0.001135677     -0.008218082    -0.002565296      0.007481695     0.002958456      -0.03376315      -0.8535345
6.392                -0.02246407      -0.8520426      0.007674696     0.002512895     -0.008067612    -0.002390739      0.009423571   -0.0009909658
                      0.01009037    0.0004874181      -0.03938967      -0.8446217      0.007318607    -0.001789203     -0.008733333    -0.001844529
                     -0.01004953    -0.001175932      0.007288964    -0.001804161       -0.0393749      -0.8445632      0.008041287     0.001823188
                      0.01031383    -0.001287233      -0.00817637    -0.002519323      0.007508962     0.002903113      -0.03670105        -0.85384
6.3936               -0.02536334      -0.8523284      0.007705546     0.002456915     -0.008025512    -0.002344771      0.009397872     -0.00109935
                      0.01006369    0.0003082514      -0.04223296        -0.84495      0.007269049    -0.001828928     -0.008677315    -0.001772355
                    -0.009977968    -0.001032757       0.00723907    -0.001843805       -0.0422168       -0.844892      0.008041476     0.001738638
                      0.01028178    -0.001437262     -0.008136068    -0.002477689      0.007537558     0.002852573      -0.03963944      -0.8541376
6.3952               -0.02826038      -0.8526071      0.007737845      0.00240545     -0.007984811    -0.002303019      0.009371348    -0.001206128
                      0.01003286    0.0001351346       -0.0450798      -0.8452716      0.007221277    -0.001862102     -0.008621532    -0.001704797
                    -0.009903486   -0.0008943139      0.007190956    -0.001876892      -0.04506186      -0.8452144      0.008041622     0.001659656
                      0.01024708    -0.001585686     -0.008097399     -0.00244032      0.007567743     0.002806744      -0.04257953       -0.854427
6.3968                -0.0311564      -0.8528788      0.007771847     0.002358403     -0.007945718    -0.002265412      0.009344088    -0.001311302
                     0.009998182   -3.178744e-05      -0.04793018      -0.8455865      0.007175604    -0.001888824     -0.008566198    -0.001641843
                    -0.009826285   -0.0007607054      0.007144937    -0.001903522      -0.04791128      -0.8455299       0.00804201     0.001586214
                      0.01020981    -0.001732432     -0.008060576    -0.002407132      0.007599778     0.002765526       -0.0455213      -0.8547082
6.3984               -0.03405099      -0.8531436      0.007807801      0.00231566     -0.007908442    -0.002231862      0.009316181    -0.001414879
                     0.009959932   -0.0001923809      -0.05078531      -0.8458943      0.007132343     -0.00190921      -0.00851154    -0.001583459
                    -0.009746575   -0.0006320439      0.007101324     -0.00192381      -0.05076423      -0.8458385      0.008042924     0.001518273
                      0.01017006    -0.001877428     -0.008025811     -0.00237804      0.007633918     0.002728804      -0.04846474      -0.8549812
6.4                  -0.03694414      -0.8534018      0.007845948     0.002277101     -0.007873189     -0.00220228      0.009287713    -0.001516869
                     0.009918407    -0.000346523      -0.05364437      -0.8461951      0.007091801    -0.001923386     -0.008457778    -0.001529603
                    -0.009664569    -0.000508418      0.007060424    -0.001937882      -0.05362232        -0.84614      0.008044645     0.001455782
                       0.0101279    -0.002020608     -0.007993314    -0.002352938      0.007670413     0.002696454      -0.05140982       -0.855246
6.4016               -0.03983707      -0.8536533      0.007886527     0.002242593     -0.007840159    -0.002176567      0.009258772    -0.001617286
                     0.009873905   -0.0004941029      -0.05650815      -0.8464886       0.00705428    -0.001931495     -0.008405133    -0.001480234
                    -0.009580491   -0.0003899188      0.007022542    -0.001945881      -0.05648514      -0.8464344      0.008047458     0.001398676
                      0.01008343    -0.002161907     -0.007963299    -0.002331716      0.007709512     0.002668339      -0.05435694      -0.8555024
6.4032               -0.04272856      -0.8538983       0.00792977     0.002211993     -0.007809555    -0.002154611      0.009229446    -0.001716151
                     0.009826733   -0.0006350213      -0.05937704      -0.8467746      0.007020077    -0.001933691     -0.008353824    -0.001435286
                    -0.009494563   -0.0002766203      0.006987972    -0.001947959      -0.05935187      -0.8467214      0.008051641     0.001346882
                      0.01003672    -0.002301264      -0.00793596    -0.002314258      0.007751451     0.002644312      -0.05730648      -0.8557504
6.4048               -0.04562025      -0.8541368      0.007975905     0.002185146      -0.00778157    -0.002136289      0.009199818    -0.001813487
                     0.009777198   -0.0007691908      -0.06225062      -0.8470531      0.006989481    -0.001930138     -0.008304068    -0.001394697
                    -0.009407009   -0.0001685938      0.006957004    -0.001944282      -0.06222452      -0.8470008      0.008057471      0.00130031
                     0.009987876    -0.002438626     -0.007911501    -0.002300433      0.007796468     0.002624215      -0.06025882        -0.85599
6.4064                -0.0485113      -0.8543688      0.008025152     0.002161888     -0.007756395    -0.002121477      0.009169976    -0.001909322
                     0.009725613   -0.0008965365      -0.06512927      -0.8473236      0.006962779    -0.001921017     -0.008256081    -0.001358389
                    -0.009318069   -6.590029e-05      0.006929927    -0.001935031      -0.06510225      -0.8472724       0.00806522     0.001258863
                     0.009936981    -0.002573939     -0.007890116    -0.002290101      0.007844791     0.002607879      -0.06321356      -0.8562211
6.408                -0.05140296      -0.8545946      0.008077725     0.002142045     -0.007734216    -0.002110034      0.009140004    -0.002003689
                     0.009672297    -0.001016996       -0.0680138      -0.8475863      0.006940249    -0.001906519      -0.00821008    -0.001326271
                    -0.009227972    3.140888e-05      0.006907013    -0.001920395      -0.06798544      -0.8475361      0.008075162     0.001222428
                     0.009884133    -0.002707155     -0.007871994    -0.002283116      0.007896641     0.002595126      -0.06617187      -0.8564435
6.4096                -0.0542944      -0.8548141      0.008133831     0.002125432     -0.007715216    -0.002101815      0.009109979    -0.002096622
                     0.009617569    -0.001130519      -0.07090376      -0.8478405      0.006922158    -0.001886848     -0.008166271    -0.001298252
                    -0.009136957    0.0001232967      0.006888538    -0.001900578      -0.07087448      -0.8477916      0.008087559     0.001190882
                     0.009829429    -0.002838231     -0.007857317    -0.002279321      0.007952233     0.002585765      -0.06913252      -0.8566572
6.4112               -0.05718685      -0.8550272      0.008193668     0.002111855     -0.007699567     -0.00209667      0.009079987    -0.002188165
                     0.009561751     -0.00123707      -0.07379993      -0.8480864      0.006908771    -0.001862219     -0.008124864    -0.001274223
                    -0.009045267    0.0002097273      0.006874758    -0.001875795      -0.07376895      -0.8480386      0.008102673      0.00116409
                     0.009772966    -0.002967126     -0.007846266    -0.002278553      0.008011771     0.002579598      -0.07209671       -0.856862
6.4128               -0.06008032      -0.8552341      0.008257429     0.002101113      -0.00768744    -0.002094432      0.009050104     -0.00227836
                     0.009505173    -0.001336623      -0.07670189      -0.8483235      0.006900338    -0.001832858     -0.008086062     -0.00125407
                    -0.008953147    0.0002906805       0.00686593    -0.001846273       -0.0766696      -0.8482769      0.008120765     0.001141906
                     0.009714844    -0.003093806     -0.007839012    -0.002280639      0.008075459     0.002576416       -0.0750644      -0.8570578
6.4144               -0.06297479      -0.8554347      0.008325296     0.002092991     -0.007678999    -0.002094931      0.009020406    -0.002367257
                     0.009448158     -0.00142917       -0.0796096      -0.8485516      0.006897105    -0.001799005     -0.008050068    -0.001237665
                    -0.008860835    0.0003661413      0.006862298    -0.001812249      -0.07957684      -0.8485062      0.008142081     0.001124172
                     0.009655165     -0.00321824     -0.007835718    -0.002285398       0.00814348     0.002576001      -0.07803557      -0.8572447
6.416                -0.06587069       -0.855629      0.008397442     0.002087269     -0.007674399    -0.002097989      0.008990968    -0.002454909
                     0.009391038    -0.001514711      -0.08252423      -0.8487706      0.006899306    -0.001760906     -0.008017075    -0.001224878
                    -0.008768584    0.0004361141      0.006864096    -0.001773973      -0.08248979      -0.8487265      0.008166867      0.00111072
                      0.00959403    -0.003340401     -0.007836544    -0.002292636      0.008216019     0.002578126      -0.08101059      -0.8574221
6.4176               -0.06876841       -0.855817      0.008474032     0.002083719     -0.007673793    -0.002103417      0.008961861    -0.002541373
                      0.00933414    -0.001593264      -0.08544452      -0.8489798      0.006907166    -0.001718823     -0.007987275    -0.001215568
                    -0.008676639    0.0005006048      0.006871548    -0.001731702      -0.08541004      -0.8489372       0.00819536     0.001101369
                     0.009531542    -0.003460268      -0.00784164    -0.002302157      0.008293245     0.002582557      -0.08398944      -0.8575902
6.4192               -0.07166839      -0.8559987       0.00855522     0.002082103     -0.007677321    -0.002111026      0.008933154    -0.002626709
                     0.009277795    -0.001664858      -0.08837167      -0.8491796      0.006920899    -0.001673023     -0.007960856    -0.001209577
                    -0.008585249    0.0005596317       0.00688487    -0.001685707      -0.08833593      -0.8491383      0.008227793      0.00109593
                     0.009467807    -0.003577824      -0.00785115     -0.00231376      0.008375321     0.002589048       -0.0869725      -0.8577487
6.4208               -0.07456978       -0.856174      0.008641151     0.002082177     -0.007685116    -0.002120615      0.008904913    -0.002710981
                     0.009222331    -0.001729535      -0.09130562      -0.8493691      0.006940709    -0.001623787     -0.007937994     -0.00120675
                    -0.008494663    0.0006132239      0.006904264    -0.001636265      -0.09126944      -0.8493292      0.008264388     0.001094201
                     0.009402929    -0.003693057     -0.007865208    -0.002327232      0.008462396     0.002597349       -0.0899597      -0.8578974
6.4224               -0.07747423      -0.8563429      0.008731958     0.002083688     -0.007697308    -0.002131973      0.008877202    -0.002794258
                     0.009168081    -0.001787354      -0.09424631      -0.8495483      0.006966786    -0.001571401     -0.007918866    -0.001206917
                    -0.008405129    0.0006614227      0.006929923    -0.001583664      -0.09420931        -0.84951      0.008305361     0.001095971
                     0.009337013    -0.003805958     -0.007883942    -0.002342348      0.008554612     0.002607201      -0.09295101      -0.8580363
6.424                -0.08038133      -0.8565052      0.008827768     0.002086379     -0.007714013    -0.002144889      0.008850081    -0.002876612
                     0.009115367    -0.001838383      -0.09719367       -0.849717      0.006999311    -0.001516164      -0.00790364    -0.001209901
                    -0.008316896    0.0007042726      0.006962026    -0.001528202      -0.09715628        -0.84968       0.00835092     0.001101019
                     0.009270164    -0.003916524     -0.007907467    -0.002358891        0.0086521     0.002618339      -0.09594683       -0.858165
6.4256               -0.08329147      -0.8566609      0.008928691     0.002089984     -0.007735342    -0.002159143      0.008823605    -0.002958116
                     0.009064518    -0.001882707       -0.1001485      -0.8498746      0.007038452    -0.001458379     -0.007892478    -0.001215517
                    -0.008230209     0.000741842      0.007000742    -0.001470183       -0.1001099      -0.8498392      0.008401264     0.001109114
                     0.009202486    -0.004024758     -0.007935894    -0.002376621      0.008754977     0.002630488      -0.09894749      -0.8582833
6.4272               -0.08620508      -0.8568099      0.009034828     0.002094234     -0.007761396    -0.002174509      0.008797828    -0.003038849
                     0.009015854    -0.001920424       -0.1031095      -0.8500208      0.007084364    -0.001398361     -0.007885533    -0.001223572
                    -0.008145317    0.0007741982      0.007046227     -0.00140992       -0.1030701      -0.8499873      0.008456578     0.001120017
                     0.009134087    -0.004130667     -0.007969321    -0.002395307       0.00886335     0.002643372       -0.1019525      -0.8583913
6.4288               -0.08912212       -0.856952       0.00914627     0.002098851     -0.007792265    -0.002190752        0.0087728    -0.003118892
                     0.008969697    -0.001951644       -0.1060778      -0.8501557      0.007137189     -0.00133643     -0.007882954    -0.001233864
                    -0.008062459    0.0008014232      0.007098622    -0.001347734        -0.106038      -0.8501235      0.008517045     0.001133479
                     0.009065069     -0.00423426      -0.00800784    -0.002414703      0.008977314     0.002656706       -0.1049623      -0.8584884
6.4304                -0.0920426      -0.8570871      0.009263094     0.002103554     -0.007828034     -0.00220764      0.008748565    -0.003198329
                     0.008926363    -0.001976494       -0.1090529      -0.8502786      0.007197056    -0.001272913     -0.007884878    -0.001246185
                    -0.007981881    0.0008236055      0.007158057    -0.001283951       -0.1090132      -0.8502479      0.008582833     0.001149243
                      0.00899554    -0.004335555      -0.00805153     -0.00243456      0.009096951     0.002670199       -0.1079772      -0.8585746
6.432                -0.09496693      -0.8572153      0.009385363     0.002108059     -0.007868771    -0.002224934      0.008725164    -0.003277248
                     0.008886164    -0.001995108       -0.1120352      -0.8503893      0.007264082    -0.001208144     -0.007891438    -0.001260321
                    -0.007903819     0.000840852      0.007224648    -0.001218905       -0.1119951      -0.8503603      0.008654101     0.001167043
                     0.008925597    -0.004434573     -0.008100457    -0.002454626      0.009222333     0.002683559       -0.1109968      -0.8586497
6.4336                -0.0978959      -0.8573361      0.009513132     0.002112075     -0.007914544     -0.00224238      0.008702637    -0.003355737
                     0.008849407    -0.002007641       -0.1150245      -0.8504875      0.007338368    -0.001142462     -0.007902755    -0.001276053
                    -0.007828509    0.0008532779      0.007298497    -0.001152935       -0.1149837      -0.8504601      0.008730997     0.001186605
                     0.008855347    -0.004531338     -0.008154687    -0.002474641      0.009353519     0.002696487       -0.1140213      -0.8587134
6.4352                -0.1008291      -0.8574496      0.009646442      0.00211531     -0.007965401    -0.002259735      0.008681013    -0.003433889
                     0.008816393    -0.002014256       -0.1180209      -0.8505728      0.007420001    -0.001076211     -0.007918944    -0.001293148
                    -0.007756184    0.0008610025      0.007379692    -0.001086385       -0.1179802       -0.850547      0.008813657     0.001207651
                      0.00878489    -0.004625882     -0.008214262    -0.002494347       0.00949055     0.002708681       -0.1170507      -0.8587656
6.4368                -0.1037673      -0.8575554      0.009785322     0.002117468     -0.008021385    -0.002276747      0.008660323    -0.003511799
                     0.008787421     -0.00201513       -0.1210242      -0.8506449      0.007509054    -0.001009741      -0.00794011    -0.001311373
                    -0.007687072    0.0008641598      0.007468305    -0.001019605       -0.1209832      -0.8506208      0.008902206     0.001229892
                     0.008714325     -0.00471824     -0.008279222    -0.002513475       0.00963346     0.002719836       -0.1200854      -0.8588058
6.4384                -0.1067101      -0.8576536      0.009929781     0.002118251     -0.008082528    -0.002293155       0.00864059    -0.003589561
                     0.008762781    -0.002010455       -0.1240347      -0.8507035      0.007605587   -0.0009434049     -0.007966348    -0.001330489
                    -0.007621397     0.000862893      0.007564396   -0.0009529459       -0.1239934      -0.8506811      0.008996759     0.001253034
                     0.008643748    -0.004808451     -0.008349596    -0.002531758      0.009782269     0.002729645       -0.1231249       -0.858834
6.44                  -0.1096582      -0.8577437       0.01007983     0.002117358     -0.008148848      -0.0023087      0.008621831    -0.003667276
                     0.008742752    -0.002000432       -0.1270515      -0.8507483      0.007709642   -0.0008775588     -0.007997744    -0.001350249
                    -0.007559376    0.0008573576       0.00766801   -0.0008867658       -0.1270103      -0.8507276      0.009097416     0.001276777
                     0.008573258    -0.004896561     -0.008425396    -0.002548925      0.009936979     0.002737796       -0.1261695      -0.8588498
6.4416                -0.1126109      -0.8578258       0.01023544     0.002114489     -0.008220358    -0.002323126      0.008604064    -0.003745043
                     0.008727617    -0.001985277       -0.1300754      -0.8507789      0.007821248   -0.0008125626     -0.008034375    -0.001370404
                    -0.007501225    0.0008477158      0.007779174   -0.0008214234       -0.1300343      -0.8507597      0.009204264     0.001300817
                     0.008502947    -0.004982617     -0.008506625    -0.002564703       0.01009758     0.002743981       -0.1292196       -0.858853
6.4432                -0.1155698      -0.8578994       0.01039661     0.002109341     -0.008297054    -0.002336163      0.008587296    -0.003822963
                     0.008717638    -0.001965219       -0.1331057       -0.850795      0.007940419   -0.0007487778     -0.008076306    -0.001390696
                    -0.007447151    0.0008341425      0.007897901   -0.0007572802       -0.1330648      -0.8507776      0.009317379     0.001324842
                      0.00843291    -0.005066664     -0.008593279    -0.002578815       0.01026406     0.002747887       -0.1322751      -0.8588434
6.4448                 -0.118534      -0.8579643       0.01056328     0.002101612     -0.008378921    -0.002347552       0.00857153    -0.003901138
                     0.008713075    -0.001940495       -0.1361429      -0.8507963      0.008067152   -0.0006865675     -0.008123592     -0.00141087
                    -0.007397354    0.0008168189      0.008024193   -0.0006946992       -0.1361025      -0.8507803      0.009436826     0.001348539
                     0.008363226     -0.00514878     -0.008685336    -0.002590989       0.01043638       0.0027492        -0.135335      -0.8588207
6.4464                -0.1215046      -0.8580204        0.0107354        0.002091      -0.00846594    -0.002357025      0.008556767    -0.003979674
                     0.008714182    -0.001911358       -0.1391864      -0.8507825      0.008201432    -0.000626296     -0.008176276    -0.001430658
                    -0.007352032    0.0007959385       0.00815803   -0.0006340444       -0.1391462      -0.8507682      0.009562652     0.001371589
                     0.008293995    -0.005229002     -0.008782765    -0.002600941       0.01061448      0.00274761       -0.1384001      -0.8587847
6.448                 -0.1244805      -0.8580676       0.01091292     0.002077204      -0.00855807    -0.002364316      0.008543001    -0.004058676
                     0.008721199    -0.001878071       -0.1422359      -0.8507532      0.008343224   -0.0005683278     -0.008234395    -0.001449795
                     -0.00731137    0.0007716993      0.008299381   -0.0005756801       -0.1421968      -0.8507403      0.009694895     0.001393668
                     0.008225289    -0.005307417     -0.008885523    -0.002608402        0.0107983     0.002742804       -0.1414707       -0.858735
6.4496                -0.1274632      -0.8581054       0.01109575     0.002059926     -0.008655266    -0.002369159       0.00853022    -0.004138244
                     0.008734356    -0.001840905        -0.145292      -0.8507079       0.00849248   -0.0005130268     -0.008297972    -0.001468007
                    -0.007275552    0.0007443171      0.008448197   -0.0005199701        -0.145253      -0.8506969      0.009833574     0.001414453
                     0.008157194    -0.005384087     -0.008993552    -0.002613087       0.01098778     0.002734473        -0.144546      -0.8586715
6.4512                -0.1304518      -0.8581334        0.0112838     0.002038867     -0.008757469    -0.002371291      0.008518405    -0.004218488
                     0.008753874    -0.001800145       -0.1483536      -0.8506469      0.008649137   -0.0004607564     -0.008367016    -0.001485029
                    -0.007244749    0.0007140075      0.008604414   -0.0004672778       -0.1483152      -0.8506373      0.009978701     0.001433616
                     0.008089784    -0.005459085     -0.009106789    -0.002614723        0.0111828     0.002722309       -0.1476261      -0.8585939
6.4528                -0.1334467      -0.8581517       0.01147696     0.002013732     -0.008864609    -0.002370444      0.008507534     -0.00429952
                     0.008779963    -0.001756087       -0.1514218      -0.8505691      0.008813115    -0.000411878     -0.008441529     -0.00150058
                    -0.007219128    0.0006809971      0.008767953   -0.0004179644       -0.1513836      -0.8505612       0.01013027     0.001450827
                     0.008023134     -0.00553249      -0.00922515    -0.002613033       0.01138328     0.002706007       -0.1507116      -0.8585021
6.4544                -0.1364484      -0.8581597       0.01167511     0.001984233     -0.008976603    -0.002366353      0.008497582    -0.004381435
                     0.008812822    -0.001709033       -0.1544944       -0.850475      0.008984317   -0.0003667509     -0.008521499    -0.001514385
                    -0.007198843    0.0006455203       0.00893872   -0.0003723889       -0.1544573      -0.8504685       0.01028826     0.001465756
                     0.007957319    -0.005604378     -0.009348547    -0.002607744       0.01158909     0.002685264       -0.1538012      -0.8583953
6.456                 -0.1394562      -0.8581575       0.01187812      0.00195008     -0.009093355    -0.002358765      0.008488514    -0.004464341
                     0.008852637    -0.001659298       -0.1575734      -0.8503636      0.009162636   -0.0003257313       -0.0086069    -0.001526166
                    -0.007184042    0.0006078241      0.009116606   -0.0003309076       -0.1575373      -0.8503585       0.01045263     0.001478073
                     0.007892399    -0.005674839     -0.009476873    -0.002598587        0.0118001     0.002659783       -0.1568959      -0.8582738
6.4576                -0.1424713      -0.8581443       0.01208584     0.001910991     -0.009214764    -0.002347414      0.008480295    -0.004548342
                     0.008899584    -0.001607204       -0.1606569       -0.850235      0.009347941   -0.0002891718     -0.008697703    -0.001535646
                    -0.007174866    0.0005681578      0.009301482    -0.000293873       -0.1606214      -0.8502314       0.01062334     0.001487446
                     0.007828433    -0.005743966     -0.009610015    -0.002585288       0.01201617     0.002629269       -0.1599951      -0.8581372
6.4592                 -0.145493      -0.8581201       0.01229812     0.001866688      -0.00934071    -0.002332047      0.008472872    -0.004633549
                     0.008953823    -0.001553083       -0.1637457      -0.8500888      0.009540092    -0.000257421     -0.008793856    -0.001542542
                     -0.00717144     0.000526775      0.009493208   -0.0002616334       -0.1637112      -0.8500866       0.01080033     0.001493545
                     0.007765486    -0.005811843     -0.009747845    -0.002567578       0.01223712     0.002593433       -0.1630983      -0.8579852
6.4608                -0.1485214      -0.8580846       0.01251478     0.001816899     -0.009471065    -0.002312411      0.008466201    -0.004720062
                     0.009015504    -0.001497274       -0.1668391      -0.8499248      0.009738936   -0.0002308223     -0.008895302    -0.001546578
                    -0.007173886    0.0004839451      0.009691628   -0.0002345324       -0.1668057      -0.8499239       0.01098352     0.001496041
                      0.00770361    -0.005878566     -0.009890221    -0.002545205        0.0124628     0.002551992       -0.1662061      -0.8578176
6.4624                 -0.151557      -0.8580374       0.01273564     0.001761358     -0.009605689    -0.002288257      0.008460226    -0.004807978
                     0.009084761    -0.001440124       -0.1699366      -0.8497427      0.009944298   -0.0002097137      -0.00900197    -0.001547479
                    -0.007182311    0.0004399386       0.00989657   -0.0002129076       -0.1699043      -0.8497431       0.01117282     0.001494605
                     0.007642854    -0.005944235      -0.01003699    -0.002517905       0.01269302     0.002504668       -0.1693184      -0.8576339
6.464                 -0.1545993      -0.8579783       0.01296049     0.001699806     -0.009744433    -0.002259342      0.008454886    -0.004897399
                     0.009161718    -0.001381988       -0.1730385      -0.8495421       0.01015599   -0.0001944268     -0.009113776    -0.001544964
                    -0.007196812    0.0003950335       0.01010785   -0.0001970908       -0.1730073      -0.8495439       0.01136811     0.001488914
                     0.007583257    -0.006008953      -0.01018799    -0.002485425       0.01292757     0.002451191       -0.1724344      -0.8574343
6.4656                 -0.157649      -0.8579068       0.01318913     0.001631991     -0.009887132    -0.002225428      0.008450114    -0.004988428
                      0.00924648    -0.001323229       -0.1761438      -0.8493231       0.01037382   -0.0001852866     -0.009230627    -0.001538758
                    -0.007217478      0.00034951       0.01032526   -0.0001874069       -0.1761136      -0.8493261       0.01156929     0.001478644
                     0.007524866    -0.006072816      -0.01034306    -0.002447516       0.01316624     0.002391298       -0.1755542      -0.8572182
6.4672                -0.1607055      -0.8578226       0.01342134     0.001557668      -0.01003361    -0.002186278      0.008445838    -0.005081156
                     0.009339141    -0.001264208       -0.1792528      -0.8490853       0.01059755   -0.0001826104     -0.009352413    -0.001528585
                    -0.007244385     0.000303655        0.0105486   -0.0001841732       -0.1792241      -0.8490894       0.01177621     0.001463477
                     0.007467714    -0.006135932      -0.01050199    -0.002403936       0.01340882     0.002324733       -0.1786778      -0.8569855
6.4688                -0.1637693      -0.8577255       0.01365688     0.001476603      -0.01018369    -0.002141666      0.008441982    -0.005175677
                     0.009439779      -0.0012053       -0.1823648      -0.8488284       0.01082698   -0.0001867076     -0.009479016    -0.001514183
                    -0.007277595    0.0002577674       0.01077762   -0.0001876989       -0.1823372      -0.8488337       0.01198873     0.001443099
                      0.00741183    -0.006198406      -0.01066459    -0.002354452       0.01365506      0.00225125       -0.1818046      -0.8567361
6.4704                -0.1668398      -0.8576151       0.01389551     0.001388569      -0.01033717    -0.002091372      0.008438461    -0.005272085
                     0.009548457    -0.001146884       -0.1854797      -0.8485522       0.01106184   -0.0001978787     -0.009610306    -0.001495276
                    -0.007317163    0.0002121387       0.01101209   -0.0001982846       -0.1854536      -0.8485584       0.01220668       0.0014172
                      0.00735724     -0.00626035      -0.01083065    -0.002298833       0.01390472     0.002170609       -0.1849348      -0.8564695
6.472                 -0.1699172       -0.857491       0.01413697     0.001293348      -0.01049385    -0.002035178      0.008435184    -0.005370469
                     0.009665225    -0.001089337       -0.1885975      -0.8482564       0.01130189   -0.0002164149     -0.009746138    -0.001471606
                    -0.007363129    0.0001670724       0.01125175   -0.0002162215       -0.1885724      -0.8482637       0.01242989     0.001385475
                     0.007303957    -0.006321876      -0.01099996    -0.002236855       0.01415754     0.002082583       -0.1880684      -0.8561856
6.4736                 -0.173002      -0.8573528         0.014381     0.001190734      -0.01065351    -0.001972877      0.008432067    -0.005470905
                      0.00979011     -0.00103306       -0.1917169      -0.8479411       0.01154685   -0.0002425976     -0.009886355    -0.001442911
                    -0.007415522    0.0001228765       0.01149633    -0.000241791       -0.1916941      -0.8479493       0.01265816     0.001347628
                     0.007252008    -0.006383089      -0.01117228    -0.002168305       0.01441325     0.001986953       -0.1912044      -0.8558844
6.4752                -0.1760936      -0.8572004       0.01462731     0.001080529      -0.01081592    -0.001904271      0.008429003    -0.005573487
                     0.009923134   -0.0009784233       -0.1948384       -0.847606       0.01179644   -0.0002766975      -0.01003079    -0.001408937
                    -0.007474357    7.985585e-05       0.01174555   -0.0002752639       -0.1948167       -0.847615        0.0128913     0.001303364
                     0.007201386    -0.006444115      -0.01134737    -0.002092974       0.01467156     0.001883514        -0.194343      -0.8555654
6.4768                -0.1791918      -0.8570334       0.01487562    0.0009625529      -0.01098085    -0.001829166      0.008425891    -0.005678285
                      0.01006429   -0.0009258278       -0.1979609       -0.847251       0.01205037   -0.0003189745      -0.01017927    -0.001369432
                    -0.007539639    3.832524e-05       0.01199911   -0.0003168999       -0.1979411      -0.8472607       0.01312908     0.001252409
                     0.007152104    -0.006505058      -0.01152498    -0.002010669       0.01493219     0.001772059       -0.1974839      -0.8552285
6.4784                -0.1822969      -0.8568512       0.01512563    0.0008366176      -0.01114806    -0.001747386      0.008422626    -0.005785377
                      0.01021358   -0.0008756652       -0.2010847      -0.8468758       0.01230832   -0.0003696766       -0.0103316    -0.001324156
                    -0.007611358   -1.406765e-06       0.01225671   -0.0003669473       -0.2010663      -0.8468863       0.01337127     0.001194467
                     0.007104158    -0.006566038      -0.01170485    -0.001921202       0.01519484      0.00165242        -0.200627      -0.8548736
6.48                  -0.1854083      -0.8566539       0.01537704    0.0007025795      -0.01131729    -0.001658746      0.008419093    -0.005894832
                      0.01037095   -0.0008283301       -0.2042088      -0.8464804       0.01256998   -0.0004290398      -0.01048758     -0.00127287
                    -0.007689492   -3.902245e-05       0.01251802    -0.000425642       -0.2041922      -0.8464915       0.01361763      0.00112928
                     0.007057539    -0.006627169      -0.01188672    -0.001824389       0.01545918     0.001524409        -0.203772      -0.8545005
6.4816                -0.1885266      -0.8564407       0.01562953     0.000560276      -0.01148827    -0.001563088      0.008415173    -0.006006717
                      0.01053636    -0.000784218       -0.2073334      -0.8460646       0.01283502   -0.0004972873        -0.010647     -0.00121534
                    -0.007774006   -7.420975e-05       0.01278272   -0.0004932074       -0.2073186      -0.8460762        0.0138679     0.001056597
                     0.007012231    -0.006688567      -0.01207029    -0.001720062       0.01572491     0.001387857       -0.2069181      -0.8541089
6.4832                 -0.191651      -0.8562115       0.01588277    0.0004095732      -0.01166075     -0.00146026      0.008410746    -0.006121091
                      0.01070974   -0.0007437245       -0.2104577      -0.8456285        0.0131031   -0.0005746291      -0.01080963    -0.001151347
                    -0.007864852   -0.0001066462       0.01305047   -0.0005698536       -0.2104446      -0.8456405       0.01412182    0.0009761571
                     0.006968216    -0.006750351      -0.01225528    -0.001608069        0.0159917     0.001242641       -0.2100658      -0.8536988
6.4848                -0.1947818       -0.855966       0.01613645    0.0002503475      -0.01183442    -0.001350114      0.008405682    -0.006238012
                      0.01089102   -0.0007072443       -0.2135814      -0.8451717       0.01337386   -0.0006612618      -0.01097523    -0.001080669
                    -0.007961968   -0.0001360205       0.01332091   -0.0006557772       -0.2135703      -0.8451841       0.01437909    0.0008877247
                     0.006925471    -0.006812633       -0.0124414    -0.001488256        0.0162592      0.00108861       -0.2132145      -0.8532699
6.4864                -0.1979187      -0.8557037        0.0163902    8.248861e-05      -0.01200902    -0.001232515      0.008399854    -0.006357532
                       0.0110801   -0.0006751708       -0.2167041      -0.8446946       0.01364695   -0.0007573675      -0.01114357    -0.001003106
                    -0.008065278   -0.0001620135       0.01359369   -0.0007511605       -0.2166949      -0.8447071       0.01463944    0.0007910698
                     0.006883957    -0.006875532      -0.01262834    -0.001360489       0.01652707    0.0009256467       -0.2163633      -0.8528224
6.488                 -0.2010614      -0.8554244       0.01664371   -9.410004e-05      -0.01218425    -0.001107343      0.008393127    -0.006479695
                      0.01127685   -0.0006478955       -0.2198254      -0.8441966       0.01392199   -0.0008631141      -0.01131439   -0.0009184484
                    -0.008174696   -0.0001843102       0.01386844   -0.0008561714        -0.219818      -0.8442094       0.01490255    0.0006859744
                     0.006843645    -0.006939162      -0.01281579    -0.001224638       0.01679497    0.0007536433        -0.219513      -0.8523558
6.4896                -0.2042097      -0.8551278       0.01689661   -0.0002795005      -0.01235979   -0.0009744907      0.008385362    -0.006604545
                      0.01148115   -0.0006258073       -0.2229448      -0.8436781       0.01419862   -0.0009786541      -0.01148742   -0.0008265147
                    -0.008290119   -0.0002026011       0.01414477   -0.0009709627       -0.2229392      -0.8436909       0.01516811    0.0005722322
                     0.006804485    -0.007003636      -0.01300342    -0.001080597       0.01706253    0.0005725068       -0.2226627      -0.8518702
6.4912                -0.2073638      -0.8548135       0.01714855   -0.0004737802      -0.01253536   -0.0008338526      0.008376417    -0.006732114
                      0.01169285   -0.0006092914       -0.2260617      -0.8431389       0.01447644    -0.001104125      -0.01166238   -0.0007271229
                    -0.008411429   -0.0002165675       0.01442232    -0.001095672       -0.2260583      -0.8431517        0.0154358    0.0004496489
                     0.006766431    -0.007069067      -0.01319092   -0.0009282652       0.01732939    0.0003821598       -0.2258116      -0.8513653
6.4928                -0.2105232      -0.8544812       0.01739917   -0.0006769919      -0.01271062   -0.0006853442      0.008366147    -0.006862432
                      0.01191177   -0.0005987295       -0.2291764       -0.842579       0.01475506    -0.001239648        -0.011839   -0.0006201006
                      -0.0085385   -0.0002259074       0.01470067     -0.00123042       -0.2291746      -0.8425918       0.01570528    0.0003180428
                     0.006729427    -0.007135566      -0.01337795   -0.0007675497       0.01759519    0.0001825394       -0.2289603      -0.8508412
6.4944                -0.2136873      -0.8541306        0.0176481    -0.000889173      -0.01288527   -0.0005288909      0.008354402    -0.006995521
                      0.01213775    -0.000594498       -0.2322874      -0.8419985       0.01503408    -0.001385328      -0.01201698   -0.0005052831
                    -0.008671189   -0.0002303102       0.01497945    -0.001375314       -0.2322878      -0.8420111        0.0159762    0.0001772453
                     0.006693411    -0.007203243      -0.01356418   -0.0005983827       0.01785955    -2.64021e-05       -0.2321078      -0.8502977
6.496                 -0.2168564      -0.8537613       0.01789498    -0.001110345      -0.01305897   -0.0003644321      0.008341036    -0.007131401
                      0.01237059   -0.0005969683        -0.235395      -0.8413975        0.0153131    -0.001541256      -0.01219602   -0.0003825259
                    -0.008809339   -0.0002294748       0.01525823    -0.001530443       -0.2353975      -0.8414098       0.01624822    2.710137e-05
                     0.006658319    -0.007272205      -0.01374925   -0.0004206958       0.01812209   -0.0002446964       -0.2352543      -0.8497349
6.4976                -0.2200303      -0.8533732       0.01813943    -0.001340516       -0.0132314   -0.0001919153      0.008325889    -0.007270079
                      0.01261005   -0.0006065054       -0.2384987      -0.8407759       0.01559172    -0.001707502      -0.01237581   -0.0002516893
                    -0.008952781   -0.0002231001       0.01553662    -0.001695877       -0.2385029      -0.8407878       0.01652098     -0.00013253
                     0.006624078    -0.007342557      -0.01393282   -0.0002344488       0.01838243   -0.0004723596       -0.2383988      -0.8491526
6.4992                -0.2232082      -0.8529658       0.01838107    -0.001579674      -0.01340223    -1.13058e-05      0.008308808    -0.007411559
                      0.01285593   -0.0006234678       -0.2415979      -0.8401338        0.0158695    -0.001884122      -0.01255603   -0.0001126469
                    -0.009101332   -0.0002109012        0.0158142    -0.001871675       -0.2416042      -0.8401452       0.01679409   -0.0003017755
                     0.006590607    -0.007414402      -0.01411455   -3.959755e-05       0.01864019   -0.0007093915       -0.2415412      -0.8485508
6.5008                  -0.22639      -0.8525391       0.01861954    -0.001827795      -0.01357112    0.0001774159      0.008289633     -0.00755584
                      0.01310795   -0.0006482061       -0.2446921      -0.8394714       0.01614605    -0.002071154      -0.01273635    3.471537e-05
                      -0.0092548     -0.00019258       0.01609054    -0.002057872       -0.2447004      -0.8394822       0.01706719   -0.0004807469
                     0.006557824    -0.007487839      -0.01429407    0.0001638661         0.018895   -0.0009557763       -0.2446813      -0.8479294
6.5024                -0.2295758      -0.8520926       0.01885446    -0.002084837      -0.01373773    0.0003742634      0.008268205    -0.007702909
                      0.01336588    -0.000681063       -0.2477811      -0.8387887       0.01642093    -0.002268619      -0.01291645    0.0001905054
                    -0.009412971   -0.0001678604       0.01636524    -0.002254491       -0.2477914      -0.8387989       0.01733989   -0.0006695411
                     0.006525639    -0.007562966      -0.01447103    0.0003759571       0.01914645    -0.001211481       -0.2478189      -0.8472886
6.504                 -0.2327647       -0.851626       0.01908544    -0.002350742      -0.01390171    0.0005792244      0.008244362    -0.007852753
                      0.01362942   -0.0007223727       -0.2508644      -0.8380859       0.01669372    -0.002476519      -0.01309599    0.0003548054
                    -0.009575626   -0.0001364676       0.01663787    -0.002461534       -0.2508767      -0.8380953       0.01761181   -0.0008682391
                     0.006493957    -0.007639873      -0.01464506    0.0005966602       0.01939416    -0.001476456       -0.2509533      -0.8466281
6.5056                -0.2359566      -0.8511394       0.01931212    -0.002625436      -0.01406273    0.0007922905       0.00821794    -0.008005343
                      0.01389829   -0.0007724593       -0.2539414      -0.8373633         0.016964    -0.002694839      -0.01327462    0.0005276925
                     -0.00974253   -9.813115e-05         0.016908    -0.002678986       -0.2539556      -0.8373716       0.01788254    -0.001076906
                      0.00646268    -0.007718654       -0.0148158    0.0008259565       0.01963774    -0.001750636       -0.2540843      -0.8459483
6.5072                -0.2391514       -0.850632       0.01953412    -0.002908828      -0.01422044     0.001013417      0.008188776    -0.008160651
                      0.01417216   -0.0008316368       -0.2570119      -0.8366208       0.01723134    -0.002923547      -0.01345199    0.0007092356
                    -0.009913435   -5.258965e-05       0.01717521    -0.002906816       -0.2570278      -0.8366282       0.01815169    -0.001295592
                     0.006431699    -0.007799392      -0.01498288     0.001063799       0.01987682    -0.002033938       -0.2572113      -0.8452489
6.5088                -0.2423484       -0.850104       0.01975107     -0.00320081      -0.01437448     0.001242565        0.0081567    -0.008318637
                      0.01445073    -0.000900209       -0.2600752      -0.8358587       0.01749532    -0.003162592      -0.01362775    0.0008994787
                     -0.01008808    4.109401e-07       0.01743908    -0.003144972       -0.2600933       -0.835865       0.01841885    -0.001524329
                     0.006400903    -0.007882169      -0.01514595     0.001310146       0.02011099    -0.002326263       -0.2603343        -0.84453
6.5104                -0.2455474      -0.8495552       0.01996258    -0.003501259      -0.01452453      0.00147967      0.008121556    -0.008479253
                      0.01473365   -0.0009784675       -0.2631314      -0.8350771       0.01775552    -0.003411904      -0.01380153     0.001098463
                      -0.0102662    6.111219e-05       0.01769917    -0.003393386       -0.2631513      -0.8350823       0.01868362    -0.001763134
                      0.00637018    -0.007967061      -0.01530464     0.001564921        0.0203399    -0.002627494       -0.2634527      -0.8437918
6.512                 -0.2487481      -0.8489851       0.02016831    -0.003810034      -0.01467022      0.00172465      0.008083169    -0.008642447
                      0.01502056    -0.001066692       -0.2661795      -0.8342765        0.0180115    -0.003671396      -0.01397298     0.001306207
                     -0.01044751    0.0001297502       0.01795507    -0.003651971       -0.2662012      -0.8342802       0.01894558    -0.002012005
                     0.006339405    -0.008054146      -0.01545858     0.001828043       0.02056314      -0.0029375        -0.266566      -0.8430343
6.5136                -0.2519497      -0.8483937       0.02036787     -0.00412698      -0.01481122     0.001977424      0.008041381    -0.008808156
                      0.01531111     -0.00116515       -0.2692195      -0.8334568       0.01826285    -0.003940963      -0.01414173     0.001522715
                     -0.01063171    0.0002065487       0.01820635    -0.003920622        -0.269243      -0.8334591       0.01920432    -0.002270925
                     0.006308458    -0.008143485       -0.0156074     0.002099408       0.02078035     -0.00325613       -0.2696742      -0.8422577
6.5152                -0.2551523      -0.8477808       0.02056092    -0.004451923      -0.01494718     0.002237878      0.007996024    -0.008976311
                      0.01560492    -0.001274095       -0.2722511      -0.8326185       0.01850915    -0.004220482      -0.01430741     0.001747985
                      -0.0108185    0.0002917264       0.01845261    -0.004199216       -0.2722763      -0.8326194       0.01945942    -0.002539858
                     0.006277204    -0.008235144      -0.01575075     0.002378909       0.02099116    -0.003583218       -0.2727767      -0.8414618
6.5168                -0.2583555      -0.8471463        0.0207471    -0.004784673      -0.01507777     0.002505896      0.007946932    -0.009146836
                       0.0159016    -0.001393767       -0.2752737      -0.8317618       0.01874998    -0.004509812      -0.01446964     0.001981987
                     -0.01100755    0.0003854882       0.01869341    -0.004487612       -0.2753006      -0.8317611       0.01971048    -0.002818753
                     0.006245512    -0.008329181      -0.01588827     0.002666411        0.0211952    -0.003918582       -0.2758734      -0.8406469
6.5184                -0.2615584        -0.84649       0.02092606    -0.005125026      -0.01520263     0.002781343      0.007893947    -0.009319643
                      0.01620073    -0.001524391       -0.2782867       -0.830887       0.01898494    -0.004808792      -0.01462806     0.002224694
                     -0.01119855    0.0004880223       0.01892836    -0.004785651       -0.2783153      -0.8308846       0.01995707    -0.003107537
                     0.006213245    -0.008425646       -0.0160196     0.002961766        0.0213921    -0.004262022       -0.2789635      -0.8398134
6.52                  -0.2647609      -0.8458116       0.02109746    -0.005472761      -0.01532145     0.003064068      0.007836903     -0.00949464
                      0.01650192    -0.001666178       -0.2812902      -0.8299944       0.01921362    -0.005117247      -0.01478229     0.002476044
                     -0.01139116    0.0005995147       0.01915704    -0.005093158       -0.2813205      -0.8299901       0.02019878    -0.003406124
                     0.006180258    -0.008524586      -0.01614438     0.003264823       0.02158152    -0.004613322       -0.2820469      -0.8389611
6.5216                -0.2679628      -0.8451113       0.02126097    -0.005827641      -0.01543387     0.003353907      0.007775643    -0.009671727
                      0.01680472    -0.001819322       -0.2842838      -0.8290842       0.01943562    -0.005434981      -0.01493196     0.002735967
                     -0.01158502    0.0007201317       0.01937908    -0.005409936       -0.2843156       -0.829078        0.0204352    -0.003714409
                     0.006146406    -0.008626042      -0.01626227     0.003575398       0.02176311    -0.004972253       -0.2851234      -0.8380902
6.5232                -0.2711633      -0.8443888       0.02141625    -0.006189413       -0.0155396     0.003650682      0.007710013    -0.009850794
                      0.01710871    -0.001984002       -0.2872669       -0.828157       0.01965055    -0.005761782      -0.01507668     0.003004389
                     -0.01177979    0.0008500324       0.01959406    -0.005735776       -0.2873002      -0.8281488        0.0206659    -0.004032268
                      0.00611154    -0.008730046      -0.01637292     0.003893312       0.02193654    -0.005338566       -0.2881922      -0.8372009
6.5248                -0.2743619      -0.8436439       0.02156301    -0.006557811       -0.0156383     0.003954211      0.007639852     -0.01003173
                      0.01741344     -0.00216038       -0.2902393      -0.8272129       0.01985803    -0.006097422      -0.01521609     0.003281205
                     -0.01197509    0.0009893607       0.01980161    -0.006070447       -0.2902739      -0.8272026        0.0208905     -0.00435956
                     0.006075508    -0.008836627      -0.01647601     0.004218343       0.02210145    -0.005711999       -0.2912536      -0.8362936
6.5264                -0.2775583      -0.8428768       0.02170092    -0.006932553      -0.01572965     0.004264271      0.007565013      -0.0102144
                      0.01771846    -0.002348599       -0.2932007      -0.8262524       0.02005768    -0.006441654      -0.01534982     0.003566303
                     -0.01217055     0.001138246       0.02000135    -0.006413705       -0.2932367      -0.8262399       0.02110858    -0.004696126
                     0.006038154    -0.008945803      -0.01657118     0.004550283       0.02225755    -0.006092275       -0.2943067      -0.8353682
6.528                 -0.2807522      -0.8420873        0.0218297     -0.00731334      -0.01581335     0.004580645      0.007485348     -0.01039868
                       0.0180233     -0.00254879        -0.296151      -0.8252757       0.02024914    -0.006794213      -0.01547748     0.003859552
                     -0.01236579     0.001296803       0.02019292    -0.006765286       -0.2961882       -0.825261       0.02131974    -0.005041789
                     0.005999321    -0.009057592      -0.01665812     0.004888893       0.02240452    -0.006479098       -0.2973517       -0.834425
6.5296                -0.2839429      -0.8412754       0.02194905    -0.007699866       -0.0158891     0.004903106      0.007400708     -0.01058443
                      0.01832748    -0.002761058       -0.2990899      -0.8242835       0.02043204    -0.007154823      -0.01559872     0.004160804
                     -0.01256043     0.001465135       0.02037595    -0.007124912       -0.2991281      -0.8242665       0.02152358    -0.005396356
                     0.005958844    -0.009171999      -0.01673652     0.005233923       0.02254206    -0.006872165       -0.3003876      -0.8334644
6.5312                -0.2871301      -0.8404409       0.02205871    -0.008091801       -0.0159566     0.005231405      0.007310955      -0.0107715
                      0.01863053    -0.002985496       -0.3020167      -0.8232761       0.02060605    -0.007523187      -0.01571318     0.004469896
                     -0.01275405     0.001643331       0.02055012     -0.00749229       -0.3020561      -0.8232566       0.02171971    -0.005759615
                     0.005916562    -0.009289025      -0.01680605     0.005585114       0.02266988    -0.007271152       -0.3034146      -0.8324866
6.5328                -0.2903129      -0.8395842       0.02215841    -0.008488812      -0.01601558     0.005565278      0.007215954     -0.01095974
                      0.01893196    -0.003222175       -0.3049316      -0.8222538       0.02077083    -0.007898995      -0.01582048     0.004786658
                     -0.01294628      0.00183146       0.02071507    -0.007867108       -0.3049719      -0.8222317       0.02190776    -0.006131339
                     0.005872313    -0.009408661      -0.01686643      0.00594218        0.0227877    -0.007675725       -0.3064323      -0.8314918
6.5344                -0.2934915       -0.838705        0.0222479    -0.008890544      -0.01606575     0.005904449       0.00711557     -0.01114899
                      0.01923128    -0.003471148       -0.3078344      -0.8212171       0.02092605    -0.008281922      -0.01592028     0.005110894
                     -0.01313668     0.002029579       0.02087049    -0.008249042       -0.3078755      -0.8211923       0.02208734    -0.006511279
                     0.005825927    -0.009530894      -0.01691736     0.006304836       0.02289527    -0.008085533       -0.3094406      -0.8304802
6.536                 -0.2966652      -0.8378034       0.02232695    -0.009296638      -0.01610684      0.00624864      0.007009676     -0.01133907
                        0.019528    -0.003732448       -0.3107246      -0.8201663       0.02107142    -0.008671626      -0.01601222     0.005442393
                     -0.01332485     0.002237733       0.02101607    -0.008637751       -0.3107667      -0.8201389       0.02225809    -0.006899175
                     0.005777239      -0.0096557      -0.01695855     0.006672783       0.02299232    -0.008500218       -0.3124388      -0.8294522
6.5376                -0.2998329      -0.8368794       0.02239534    -0.009706714       -0.0161386     0.006597544      0.006898152      -0.0115298
                       0.0198216    -0.004006087       -0.3136021       -0.819102       0.02120662    -0.009067754      -0.01609596     0.005780932
                     -0.01351037     0.002455942       0.02115151     -0.00903288       -0.3136449       -0.819072       0.02241965    -0.007294746
                     0.005726075    -0.009783051      -0.01698974      0.00704569       0.02307864    -0.008919405       -0.3154267      -0.8284081
6.5392                 -0.302995      -0.8359331       0.02245286     -0.01012039      -0.01616079     0.006950854      0.006780886     -0.01172102
                      0.02011159     -0.00429206       -0.3164671      -0.8180248       0.02133138    -0.009469938      -0.01617115     0.006126281
                     -0.01369282     0.002684221       0.02127654    -0.009434065       -0.3165103      -0.8179919       0.02257167    -0.007697697
                     0.005672271    -0.009912908      -0.01701067     0.007423236       0.02315398    -0.009342708       -0.3184045      -0.8273482
6.5408                -0.3061508      -0.8349648       0.02249932     -0.01053727      -0.01617317     0.007308245      0.006657756     -0.01191252
                      0.02039747    -0.004590337       -0.3193187       -0.816935       0.02144543    -0.009877794      -0.01623748     0.006478174
                     -0.01387177     0.002922556       0.02139088    -0.009840922       -0.3193625      -0.8168992       0.02271381    -0.008107716
                      0.00561565     -0.01004523      -0.01702108     0.007805076       0.02321815    -0.009769731       -0.3213713      -0.8262728
6.5424                -0.3092993      -0.8339743       0.02253454     -0.01095694      -0.01617552     0.007669385      0.006528674     -0.01210411
                       0.0206787    -0.004900871       -0.3221576       -0.815833       0.02154853     -0.01029093      -0.01629461     0.006836356
                     -0.01404679     0.003170921       0.02149428     -0.01025306       -0.3222017      -0.8157942       0.02284574    -0.008524477
                     0.005556048     -0.01017995      -0.01702076     0.008190854       0.02327096     -0.01020006       -0.3243273      -0.8251821
6.544                 -0.3124407      -0.8329619       0.02255836     -0.01137899      -0.01616762     0.008033922      0.006393531     -0.01229559
                       0.0209548    -0.005223593       -0.3249832      -0.8147194       0.02164042     -0.01070894      -0.01634224     0.007200531
                     -0.01421745     0.003429275       0.02158651     -0.01067007       -0.3250275      -0.8146776       0.02296715    -0.008947633
                     0.005493292     -0.01031703      -0.01700945     0.008580212       0.02331224      -0.0106333       -0.3272723      -0.8240767
6.5456                -0.3155741      -0.8319277       0.02257065     -0.01180299      -0.01614928     0.008401517       0.00625224     -0.01248673
                      0.02122524    -0.005558412       -0.3277956      -0.8135946        0.0217209     -0.01113141      -0.01638005     0.007570413
                     -0.01438332      0.00369756       0.02166734     -0.01109154         -0.32784      -0.8135497       0.02307773    -0.009376832
                     0.005427212     -0.01045638      -0.01698698     0.008972757       0.02334181     -0.01106899       -0.3302058      -0.8229567
6.5472                -0.3186991      -0.8308719       0.02257128      -0.0122285      -0.01612031     0.008771792      0.006104723     -0.01267735
                       0.0214895    -0.005905216       -0.3305945      -0.8124592       0.02178976     -0.01155791      -0.01640774     0.007945681
                     -0.01454397     0.003975697       0.02173658     -0.01151705        -0.330639      -0.8124112       0.02317719    -0.009811698
                     0.005357644     -0.01059793      -0.01695312     0.009368122       0.02335955     -0.01150672        -0.333128      -0.8218228
6.5488                -0.3218152      -0.8297946       0.02256014     -0.01265509      -0.01608054      0.00914437      0.005950902      -0.0128672
                       0.0217471    -0.006263874         -0.33338      -0.8113136       0.02184682       -0.011988      -0.01642504     0.008326021
                     -0.01469895     0.004263598       0.02179403     -0.01194614       -0.3334242      -0.8112625       0.02326526     -0.01025185
                     0.005284412     -0.01074159      -0.01690771     0.009765896       0.02336534     -0.01194604       -0.3360382      -0.8206751
6.5504                -0.3249221      -0.8286961       0.02253713     -0.01308231      -0.01602982     0.009518879      0.005790707     -0.01305607
                      0.02199751    -0.006634231       -0.3361522      -0.8101583        0.0218919     -0.01242124      -0.01643167      0.00871109
                     -0.01484784     0.004561142       0.02183954     -0.01237839       -0.3361963       -0.810104       0.02334167     -0.01069687
                     0.005207357     -0.01088727      -0.01685056      0.01016568       0.02335905      -0.0123865       -0.3389366       -0.819514
6.552                 -0.3280195      -0.8275766        0.0225022      -0.0135097      -0.01596801     0.009894919      0.005624083     -0.01324371
                      0.02224022    -0.007016111        -0.338911      -0.8089939       0.02192486     -0.01285716      -0.01642737     0.009100529
                      -0.0149902     0.004868204       0.02187295     -0.01281333       -0.3389546      -0.8089365       0.02340618     -0.01114637
                     0.005126311     -0.01103487      -0.01678155      0.01056705       0.02334062     -0.01282764       -0.3418231      -0.8183399
6.5536                -0.3311066      -0.8264363       0.02245529      -0.0139368      -0.01589496       0.0102721      0.005450976     -0.01342991
                      0.02247475    -0.007409317       -0.3416564      -0.8078208       0.02194557     -0.01329532      -0.01641187     0.009493992
                      -0.0151256      0.00518463       0.02189413      -0.0132505       -0.3416994      -0.8077601       0.02345855     -0.01159992
                     0.005041118     -0.01118428      -0.01670052       0.0109696       0.02330998       -0.013269       -0.3446971      -0.8171535
6.5552                -0.3341828      -0.8252754       0.02239637     -0.01436315      -0.01581058         0.01065      0.005271348      -0.0136144
                      0.02270058    -0.007813632       -0.3443885      -0.8066395       0.02195392     -0.01373523      -0.01638496     0.009891091
                     -0.01525362     0.005510259       0.02190298     -0.01368944       -0.3444307      -0.8065757       0.02349857     -0.01205707
                     0.004951613     -0.01133537      -0.01660737      0.01137287       0.02326707     -0.01371011        -0.347559      -0.8159547
6.5568                -0.3372483      -0.8240944       0.02232542     -0.01478828      -0.01571477      0.01102822      0.005085167     -0.01379696
                      0.02291724    -0.008228813       -0.3471072      -0.8054507       0.02194981     -0.01417642      -0.01634639      0.01029143
                     -0.01537383     0.005844907       0.02189939     -0.01412966       -0.3471488      -0.8053835       0.02352605     -0.01251738
                     0.004857644     -0.01148802      -0.01650198      0.01177645       0.02321186     -0.01415049       -0.3504086      -0.8147442
6.5584                 -0.340302      -0.8228934       0.02224244     -0.01521172      -0.01560744      0.01140632      0.004892404     -0.01397732
                      0.02312424    -0.008654603       -0.3498129      -0.8042546       0.02193319     -0.01461841      -0.01629596      0.01069464
                      -0.0154858     0.006188372       0.02188332     -0.01457068       -0.3498535      -0.8041841        0.0235408     -0.01298038
                     0.004759057      -0.0116421      -0.01638427      0.01217988       0.02314436     -0.01458968       -0.3532456      -0.8135223
6.56                  -0.3433439      -0.8216727       0.02214748     -0.01563299      -0.01548854      0.01178391      0.004693052     -0.01415524
                      0.02332109    -0.009090716       -0.3525054      -0.8030519         0.021904     -0.01506072      -0.01623348      0.01110027
                     -0.01558913     0.006540428       0.02185468     -0.01501203       -0.3525448      -0.8029783       0.02354265     -0.01344562
                     0.004655703     -0.01179746      -0.01625416      0.01258271       0.02306456     -0.01502718       -0.3560702      -0.8122896
6.5616                -0.3463736      -0.8204327       0.02204057     -0.01605161      -0.01535801      0.01216053      0.004487101     -0.01433046
                      0.02350733    -0.009536852       -0.3551852       -0.801843       0.02186219     -0.01550285      -0.01615874      0.01150794
                      -0.0156834     0.006900846       0.02181347     -0.01545322       -0.3552232      -0.8017661       0.02353146     -0.01391262
                      0.00454744     -0.01195396      -0.01611163      0.01298449        0.0229725     -0.01546253       -0.3588821      -0.8110464
6.5632                -0.3493905      -0.8191737       0.02192179     -0.01646712      -0.01521583      0.01253575      0.004274563     -0.01450272
                      0.02368251    -0.009992686        -0.357852      -0.8006285       0.02180778     -0.01594432      -0.01607162      0.01191719
                     -0.01576821     0.007269357       0.02175968     -0.01589374       -0.3578885      -0.8005483       0.02350712     -0.01438088
                     0.004434124     -0.01211142      -0.01595661      0.01338475       0.02286824     -0.01589524       -0.3616813      -0.8097932
6.5648                -0.3523946      -0.8178961       0.02179121     -0.01687904      -0.01506199      0.01290915      0.004055445     -0.01467176
                      0.02384617     -0.01045787       -0.3605061      -0.7994088       0.02174077     -0.01638462      -0.01597192      0.01232759
                     -0.01584316       0.0076457       0.02169329     -0.01633311       -0.3605413      -0.7993253       0.02346951     -0.01484991
                     0.004315624      -0.0122697      -0.01578912      0.01378303       0.02275184     -0.01632483       -0.3644681      -0.8085301
6.5664                -0.3553849      -0.8166004       0.02164895     -0.01728689      -0.01489648      0.01328027      0.003829783     -0.01483732
                      0.02399787     -0.01093205       -0.3631479      -0.7981845       0.02166119     -0.01682327      -0.01585954       0.0127387
                     -0.01590786     0.008029582       0.02161438     -0.01677084       -0.3631813      -0.7980977       0.02341855     -0.01531922
                     0.004191807     -0.01242861      -0.01560913      0.01417888       0.02262341     -0.01675081       -0.3672422      -0.8072581
6.568                 -0.3583613      -0.8152868       0.02149514     -0.01769021      -0.01471934      0.01364869      0.003597604     -0.01499912
                       0.0241372     -0.01141483       -0.3657776      -0.7969558        0.0215691     -0.01725977      -0.01573434      0.01315006
                     -0.01596193     0.008420685       0.02152297     -0.01720642       -0.3658091      -0.7968658       0.02335416     -0.01578829
                     0.004062549     -0.01258796      -0.01541668       0.0145718       0.02248305     -0.01717271       -0.3700034      -0.8059772
6.5696                -0.3613237      -0.8139558       0.02132993     -0.01808852       -0.0145306      0.01401394      0.003358966      -0.0151569
                      0.02426372     -0.01190581       -0.3683954      -0.7957234       0.02146458     -0.01769362      -0.01559624      0.01356121
                       -0.016005     0.008818696       0.02141915     -0.01763937       -0.3684249      -0.7956302       0.02327632     -0.01625661
                     0.003927732     -0.01274759      -0.01521181      0.01496135        0.0223309     -0.01759006       -0.3727522       -0.804688
6.5712                -0.3642717      -0.8126079       0.02115349     -0.01848136      -0.01433032       0.0143756      0.003113922      -0.0153104
                      0.02437705     -0.01240456       -0.3710015      -0.7944877       0.02134771     -0.01812434      -0.01544513      0.01397166
                      -0.0160367     0.009223267       0.02130301      -0.0180692       -0.3710288      -0.7943914       0.02318498     -0.01672366
                     0.003787248     -0.01290727      -0.01499458      0.01534703       0.02216712     -0.01800237       -0.3754887      -0.8033909
6.5728                -0.3672044      -0.8112434       0.02096601     -0.01886827      -0.01411858      0.01473322      0.002862545     -0.01545934
                       0.0244768     -0.01291066       -0.3735963      -0.7932491       0.02121863     -0.01855143      -0.01528097      0.01438096
                     -0.01605668     0.009634038       0.02117468     -0.01849541       -0.3736214      -0.7931496       0.02308016     -0.01718893
                     0.003640984     -0.01306682      -0.01476507       0.0157284       0.02199188     -0.01840919       -0.3782127      -0.8020862
6.5744                -0.3701224      -0.8098627        0.0207677     -0.01924879      -0.01389549      0.01508635      0.002604913     -0.01560346
                      0.02456259     -0.01342362       -0.3761801       -0.792008       0.02107747     -0.01897441       -0.0151037      0.01478862
                     -0.01606462      0.01005063       0.02103429     -0.01891752       -0.3762026      -0.7919055       0.02296186     -0.01765189
                     0.003488846     -0.01322603      -0.01452337      0.01610495       0.02180539     -0.01881004       -0.3809239      -0.8007746
6.576                 -0.3730249      -0.8084665        0.0205588     -0.01962249      -0.01366113      0.01543456      0.002341114     -0.01574248
                      0.02463409     -0.01394298       -0.3787532      -0.7907648       0.02092439     -0.01939279       -0.0149133      0.01519414
                     -0.01606016      0.01047266         0.020882     -0.01933506       -0.3787731      -0.7906594       0.02283014     -0.01811201
                     0.003330737     -0.01338467       -0.0142696      0.01647625       0.02160785     -0.01920447       -0.3836236      -0.7994562
6.5776                -0.3759119      -0.8070552       0.02033956     -0.01998891      -0.01341565       0.0157774      0.002071259     -0.01587616
                      0.02469093     -0.01446825       -0.3813157      -0.7895201       0.02075958     -0.01980611      -0.01470976      0.01559705
                     -0.01604301      0.01089971       0.02071801     -0.01974753       -0.3813328      -0.7894117       0.02268505     -0.01856876
                     0.003166582     -0.01354253       -0.0140039      0.01684181       0.02139951     -0.01959204       -0.3863104      -0.7981318
6.5792                -0.3787827      -0.8056292       0.02011025     -0.02034763       -0.0131592      0.01611445      0.001795463      -0.0160042
                      0.02473281      -0.0149989       -0.3838685      -0.7882742       0.02058324     -0.02021388      -0.01449308      0.01599684
                     -0.01601285      0.01133137       0.02054251     -0.02015449       -0.3838826      -0.7881628       0.02252668     -0.01902162
                       0.0029963     -0.01369937      -0.01372643      0.01720118       0.02118064     -0.01997229       -0.3889861      -0.7968014
6.5808                -0.3816376      -0.8041891       0.01987117     -0.02069823      -0.01289196      0.01644526      0.001513838     -0.01612635
                      0.02475943     -0.01553441       -0.3864116      -0.7870272        0.0203956     -0.02061566       -0.0142633      0.01639302
                     -0.01596941      0.01176719       0.02035573     -0.02055546       -0.3864226      -0.7869131       0.02235513     -0.01947007
                     0.002819827     -0.01385497      -0.01343736      0.01755389        0.0209515      -0.0203448       -0.3916496      -0.7954658
6.5824                -0.3844761      -0.8027354       0.01962262     -0.02104029      -0.01261411      0.01676942      0.001226541     -0.01624236
                       0.0247705     -0.01607424       -0.3889456      -0.7857798        0.0201969     -0.02101099      -0.01402046      0.01678509
                     -0.01591241      0.01220674        0.0201579     -0.02094999       -0.3889535       -0.785663       0.02217054     -0.01991357
                     0.002637099     -0.01400908      -0.01313688      0.01789949        0.0207124     -0.02070914       -0.3943015      -0.7941251
6.584                 -0.3872981      -0.8012686       0.01936494     -0.02137342      -0.01232583       0.0170865     0.0009337075     -0.01635195
                      0.02476576     -0.01661784       -0.3914706      -0.7845322       0.01998741     -0.02139942      -0.01376463      0.01717256
                     -0.01584159      0.01264952       0.01994931     -0.02133765       -0.3914754      -0.7844127       0.02197305     -0.02035161
                     0.002448071     -0.01416145      -0.01282522      0.01823753       0.02046366      -0.0210649       -0.3969423      -0.7927799
6.5856                -0.3901032      -0.7997892       0.01909848     -0.02169723      -0.01202739      0.01739609     0.0006355006     -0.01645488
                      0.02474498     -0.01716461       -0.3939874      -0.7832847       0.01976742     -0.02178052      -0.01349591      0.01755492
                      -0.0157567      0.01309509       0.01973024     -0.02171799       -0.3939886      -0.7831627       0.02176286     -0.02078367
                       0.0022527     -0.01431184      -0.01250259      0.01856757       0.02020561     -0.02141169       -0.3995719      -0.7914305
6.5872                -0.3928914      -0.7982979       0.01882361     -0.02201133      -0.01171899      0.01769779     0.0003320964     -0.01655089
                      0.02470792     -0.01771399       -0.3964969      -0.7820375       0.01953722     -0.02215386      -0.01321439      0.01793167
                     -0.01565754      0.01354293       0.01950098      -0.0220906       -0.3964942      -0.7819132       0.02154014     -0.02120923
                     0.002050956        -0.01446      -0.01216926      0.01888917       0.01993862      -0.0217491       -0.4021904      -0.7900773
6.5888                -0.3956629      -0.7967951       0.01854071     -0.02231538       -0.0114009      0.01799119     2.367396e-05     -0.01663972
                       0.0246544     -0.01826537       -0.3989985      -0.7807912       0.01929716     -0.02251904      -0.01292022      0.01830233
                     -0.01554388      0.01399254       0.01926188     -0.02245506       -0.3989923      -0.7806645       0.02130512     -0.02162778
                     0.001842818     -0.01460566      -0.01182549      0.01920192       0.01966305     -0.02207678       -0.4047984      -0.7887207
6.5904                -0.3984172      -0.7952815        0.0182502     -0.02260902      -0.01107341      0.01827589    -0.0002895756     -0.01672116
                      0.02458424     -0.01881814       -0.4014932      -0.7795458       0.01904757     -0.02287567      -0.01261353      0.01866639
                     -0.01541554      0.01444342       0.01901327     -0.02281099       -0.4014831      -0.7794169       0.02105804     -0.02203883
                     0.001628271     -0.01474856      -0.01147159      0.01950537        0.0193793     -0.02239435        -0.407396       -0.787361
6.592                 -0.4011543      -0.7937575       0.01795247     -0.02289192       -0.0107368      0.01855154    -0.0006074418     -0.01679494
                      0.02449728     -0.01937168       -0.4039817      -0.7783017       0.01878881     -0.02322335      -0.01229451      0.01902336
                     -0.01527235      0.01489503       0.01875551     -0.02315798       -0.4039678      -0.7781706       0.02079917     -0.02244187
                     0.001407323     -0.01488843      -0.01110784      0.01979914       0.01908779     -0.02270147        -0.409984      -0.7859984
6.5936                -0.4038741      -0.7922238         0.017648     -0.02316377      -0.01039139      0.01881774    -0.0009297023     -0.01686083
                       0.0243934     -0.01992536       -0.4064646      -0.7770587       0.01852128     -0.02356172      -0.01196334      0.01937275
                     -0.01511417      0.01534684       0.01848898     -0.02349569       -0.4064464      -0.7769259        0.0205288     -0.02283643
                     0.001179974     -0.01502502      -0.01073456      0.02008282       0.01878892     -0.02299782        -0.412562      -0.7846336
6.5952                -0.4065767      -0.7906809       0.01733722     -0.02342427      -0.01003748      0.01907414      -0.00125614     -0.01691863
                      0.02427249     -0.02047854       -0.4089424      -0.7758175       0.01824536     -0.02389042      -0.01162023      0.01971407
                     -0.01494084       0.0157983       0.01821409     -0.02382376       -0.4089196      -0.7756827       0.02024723     -0.02322202
                    0.0009462434     -0.01515803      -0.01035212      0.02035603       0.01848317     -0.02328308       -0.4151307      -0.7832666
6.5968                -0.4092619      -0.7891296        0.0170206     -0.02367314     -0.009675446       0.0193204     -0.001586509     -0.01696809
                      0.02413449     -0.02103057        -0.411415       -0.774578       0.01796146     -0.02420912       -0.0112654      0.02004687
                     -0.01475228      0.01624884       0.01793124     -0.02414184        -0.411388      -0.7744415       0.01995478     -0.02359819
                    0.0007061707     -0.01528721     -0.009960868      0.02061839       0.01817097     -0.02355696       -0.4176903      -0.7818979
6.5984                -0.4119301      -0.7875701       0.01669863     -0.02391013     -0.009305625      0.01955617     -0.001920562     -0.01700901
                      0.02397933      -0.0215808       -0.4138838      -0.7733404       0.01767004      -0.0245175      -0.01089912      0.02037065
                     -0.01454837      0.01669792       0.01764088     -0.02444963       -0.4138522      -0.7732024       0.01965183     -0.02396446
                    0.0004597935     -0.01541227     -0.009561164      0.02086954       0.01785281     -0.02381918       -0.4202409      -0.7805278
6.6                   -0.4145809      -0.7860032        0.0163718     -0.02413498     -0.008928401      0.01978114     -0.002258044     -0.01704118
                      0.02380699     -0.02212856       -0.4163486      -0.7721048       0.01737152     -0.02481527      -0.01052164      0.02068496
                     -0.01432907      0.01714497       0.01734344     -0.02474681       -0.4163127      -0.7719653       0.01933873     -0.02432041
                    0.0002071674     -0.01553294     -0.009153427      0.02110913       0.01752917     -0.02406948       -0.4227836      -0.7791564
